CeO2-110-l3-p23:                        
   1.00000000000000     
    10.9800000000000004    0.0000000000000000    0.0000000000000000
     0.0000000000000000   11.6460486861424357    0.0000000000000000
     0.0000000000000000    0.0000000000000000   24.7050405717853714
    35    70     2
Selective dynamics
Direct
  0.7712027356029978  0.1666667660079995  0.0000000000000000   F   F   F
  0.7712027356029978  0.5000000993410012  0.0000000000000000   F   F   F
  0.2712027356029978  0.1666667660079995  0.0000000000000000   F   F   F
  0.7712027356029978  0.8333334326740029  0.0000000000000000   F   F   F
  0.2712027356029978  0.5000000993410012  0.0000000000000000   F   F   F
  0.2712027356029978  0.8333334326740029  0.0000000000000000   F   F   F
  0.5212027356029978  0.0000000993410012  0.0785672911050028   F   F   F
  0.5212027356029978  0.6666667660079995  0.0785672911050028   F   F   F
  0.0212027356029978  0.0000000993410012  0.0785672911050028   F   F   F
  0.5212027356029978  0.3333334326740029  0.0785672911050028   F   F   F
  0.0212027356029978  0.3333334326740029  0.0785672911050028   F   F   F
  0.0212027356029978  0.6666667660079995  0.0785672911050028   F   F   F
  0.7709201668691992  0.1671893716667332  0.1576067281010202   T   T   T
  0.7702384483869047  0.8330747106822726  0.1574294651000839   T   T   T
  0.2703988721354043  0.1661750850419172  0.1573590929741568   T   T   T
  0.7707271091572514  0.5007840880451717  0.1567768133823285   T   T   T
  0.2705771904199558  0.5004375645960785  0.1569966782625792   T   T   T
  0.2715226264978520  0.8326869147670681  0.1576563356211298   T   T   T
  0.0212549393330835  0.6671349470830591  0.2339647147578791   T   T   T
  0.5196536470070130  0.6667538805723175  0.2358059986848382   T   T   T
  0.0204881822040897  0.3326074708466242  0.2351976826503557   T   T   T
  0.0242296656039091  0.9983139736762151  0.2332799355889147   T   T   T
  0.5237086932092785  0.0022163805576153  0.2344490635299577   T   T   T
  0.5169706912077727  0.3332024542983135  0.2324707371669202   T   T   T
  0.7663551711898235  0.5003320927674857  0.3114100991058488   T   T   T
  0.7782340179912800  0.1691661813444888  0.3162342166632047   T   T   T
  0.2611138581396509  0.4994719519138335  0.3134693512483664   T   T   T
  0.2812560623186802  0.8322359482343406  0.3185203867017540   T   T   T
  0.2697089164744856  0.1638882570480714  0.3162341962835279   T   T   T
  0.7758712360138240  0.8360679549411231  0.3154582941022506   T   T   T
  0.0274177199208272 -0.0005717547018640  0.3846072556158038   T   T   T
  0.5259554139797891  0.9975019952770280  0.3870053791845737   T   T   T
  0.0307113141376051  0.6839582350425389  0.3870175545758319   T   T   T
  0.5439606068527630  0.6819697872251997  0.3921260757029195   T   T   T
  0.0239957132235086  0.3170809875901564  0.3911412059753250   T   T   T
  0.6462027356029978  0.3333334326740029  0.0000000000000000   F   F   F
  0.1462027356029978  0.0000000993410012  0.0000000000000000   F   F   F
  0.6462027356029978  0.6666667660079995  0.0000000000000000   F   F   F
  0.8962027356029978  0.0000000993410012  0.0000000000000000   F   F   F
  0.8962027356029978  0.3333334326740029  0.0000000000000000   F   F   F
  0.1462027356029978  0.3333334326740029  0.0000000000000000   F   F   F
  0.3962027356029978  0.6666667660079995  0.0000000000000000   F   F   F
  0.3962027356029978  0.0000000993410012  0.0000000000000000   F   F   F
  0.6462027356029978  0.0000000993410012  0.0000000000000000   F   F   F
  0.3962027356029978  0.3333334326740029  0.0000000000000000   F   F   F
  0.8962027356029978  0.6666667660079995  0.0000000000000000   F   F   F
  0.1462027356029978  0.6666667660079995  0.0000000000000000   F   F   F
  0.3962027356029978  0.8333334326740029  0.0785672911050028   F   F   F
  0.6462027356029978  0.8333334326740029  0.0785672911050028   F   F   F
  0.3962027356029978  0.1666667660079995  0.0785672911050028   F   F   F
  0.1462027356029978  0.1666667660079995  0.0785672911050028   F   F   F
  0.8962027356029978  0.1666667660079995  0.0785672911050028   F   F   F
  0.8962027356029978  0.8333334326740029  0.0785672911050028   F   F   F
  0.6462027356029978  0.1666667660079995  0.0785672911050028   F   F   F
  0.1462027356029978  0.8333334326740029  0.0785672911050028   F   F   F
  0.3962027356029978  0.5000000993410012  0.0785672911050028   F   F   F
  0.1462027356029978  0.5000000993410012  0.0785672911050028   F   F   F
  0.8962027356029978  0.5000000993410012  0.0785672911050028   F   F   F
  0.6462027356029978  0.5000000993410012  0.0785672911050028   F   F   F
  0.6470984176675098 -0.0006227593112593  0.1562912254050253   T   T   T
  0.3957652295977269  0.6676214916504382  0.1570451766018511   T   T   T
  0.6454152499490647  0.6683638256465154  0.1574844958258119   T   T   T
  0.8957300213986706  0.6669466543650370  0.1565263727420781   T   T   T
  0.1471899495786876  0.0000572222861387  0.1558165420839518   T   T   T
  0.8964029785656308  0.9994414264926270  0.1579348246518826   T   T   T
  0.3970414369735736  0.9986899027188871  0.1579802182137029   T   T   T
  0.1459109742922169  0.6659099852193392  0.1568467061412718   T   T   T
  0.3942259938021821  0.3331112589939390  0.1560389465266796   T   T   T
  0.8951219061672854  0.3334688142816919  0.1569990588856839   T   T   T
  0.6451896580268369  0.3342713686008290  0.1567731770694672   T   T   T
  0.1456679822740167  0.3330493345591416  0.1573463020110781   T   T   T
  0.6464372954417678  0.1648922834992873  0.2336951443578333   T   T   T
  0.6471523608780564  0.8369187637424429  0.2363082204172688   T   T   T
  0.3974428821833722  0.8291036703607475  0.2379163359863383   T   T   T
  0.8928170400985597  0.5013444900280275  0.2347366008970572   T   T   T
  0.1467183090128242  0.8335278862188336  0.2332168377913099   T   T   T
  0.6441379132007709  0.5033537503999752  0.2344517047262619   T   T   T
  0.3949017096286025  0.1675151513166542  0.2350851181189807   T   T   T
  0.8964133677461195  0.1698378429355681  0.2365953501681020   T   T   T
  0.3948651984517811  0.5011179118430110  0.2339225940421335   T   T   T
  0.1406608202267774  0.5003860269353004  0.2348148022573186   T   T   T
  0.1455376544984549  0.1639037507615203  0.2347251422531600   T   T   T
  0.8966037304985107  0.8277311286121947  0.2364468392909649   T   T   T
  0.6440771121733810  0.3381203912559024  0.3062772886515011   T   T   T
  0.9011226915075211  0.9979383615549158  0.3101115670737651   T   T   T
  0.1460393500562996  0.6772351269385999  0.3128963061798531   T   T   T
  0.3929187334322702  0.3330507463570993  0.3164300570244999   T   T   T
  0.6518282276659990  0.0058409911173362  0.3151168037401137   T   T   T
  0.6509036730006246  0.6699497110484489  0.3126650144164478   T   T   T
  0.4019583973591637 -0.0006989364051028  0.3130272306590312   T   T   T
  0.8993340921968643  0.6564632664362621  0.3186412854136799   T   T   T
  0.4016288660648459  0.6600829706034531  0.3223546236611131   T   T   T
  0.8967959970049818  0.3414884346539083  0.3157184799082802   T   T   T
  0.1435865912781727  0.3240865432723783  0.3137380530041973   T   T   T
  0.1514482801264871  0.9952383866583753  0.3117460673102221   T   T   T
  0.6551434134757865  0.8449718419504159  0.3926429790670815   T   T   T
  0.1511202804788323  0.8352696506970689  0.3943080783220302   T   T   T
  0.4104919003746895  0.8455336490115918  0.3945090827599040   T   T   T
  0.4070949147610695  0.1578010227352653  0.3950206898131048   T   T   T
  0.1493230891048345  0.1537249171548087  0.3927685234425448   T   T   T
  0.9089171201282431  0.8366187427188596  0.3901472226176594   T   T   T
  0.9048106229783730  0.1493075629245621  0.3894283641231144   T   T   T
  0.6627740877712425  0.1854676794511057  0.4014229421835233   T   T   T
  0.7063782216015460  0.5294363493160702  0.4039049140965684   T   T   T
  0.1034492374581503  0.5117788521099553  0.3966570681326009   T   T   T
  0.5265846580294341  0.2580514178991848  0.3582030128250223   T   T   T
  0.6999199730358856  0.3623457991967989  0.4130077309954055   T   T   T
