CeO2-110-l3-p23:                        
   1.00000000000000     
    10.9800000000000004    0.0000000000000000    0.0000000000000000
     0.0000000000000000   11.6460486861424357    0.0000000000000000
     0.0000000000000000    0.0000000000000000   24.7050405717853714
    35    72     1
Selective dynamics
Direct
  0.7712027356029978  0.1666667660079995  0.0000000000000000   F   F   F
  0.7712027356029978  0.5000000993410012  0.0000000000000000   F   F   F
  0.2712027356029978  0.1666667660079995  0.0000000000000000   F   F   F
  0.7712027356029978  0.8333334326740029  0.0000000000000000   F   F   F
  0.2712027356029978  0.5000000993410012  0.0000000000000000   F   F   F
  0.2712027356029978  0.8333334326740029  0.0000000000000000   F   F   F
  0.5212027356029978  0.0000000993410012  0.0785672911050028   F   F   F
  0.5212027356029978  0.6666667660079995  0.0785672911050028   F   F   F
  0.0212027356029978  0.0000000993410012  0.0785672911050028   F   F   F
  0.5212027356029978  0.3333334326740029  0.0785672911050028   F   F   F
  0.0212027356029978  0.3333334326740029  0.0785672911050028   F   F   F
  0.0212027356029978  0.6666667660079995  0.0785672911050028   F   F   F
  0.7712472282231480  0.1662034183516883  0.1577212343311276   T   T   T
  0.7713335959681532  0.8333224544113517  0.1580265120056927   T   T   T
  0.2711704969860544  0.1662395023466224  0.1577310081954115   T   T   T
  0.7712498222394857  0.5004393133408153  0.1577173400569826   T   T   T
  0.2711688378988221  0.5004342950717708  0.1577191587163027   T   T   T
  0.2710873108394137  0.8333221698766237  0.1580485879106645   T   T   T
  0.0212187337437266  0.6669076550173023  0.2342255083412558   T   T   T
  0.5211777389059512  0.6666557519536234  0.2342577752576211   T   T   T
  0.0212280731564192  0.3332975289746938  0.2337310433928967   T   T   T
  0.0212242791783413 -0.0002363056130921  0.2342317294556525   T   T   T
  0.5211844507463231  0.0000152901198699  0.2342815374267369   T   T   T
  0.5212133805333790  0.3333410422655660  0.2333256364196211   T   T   T
  0.7710644673707341  0.4969565449988123  0.3170951117514141   T   T   T
  0.7710086384688988  0.1696755613120440  0.3171009881842679   T   T   T
  0.2713657830698686  0.4970311109031703  0.3170808581789986   T   T   T
  0.2706220180531177  0.8333293218176548  0.3186764663106645   T   T   T
  0.2714097587641260  0.1696958531249805  0.3170982820095929   T   T   T
  0.7718108459758771  0.8332701102961805  0.3186761368903093   T   T   T
  0.0212169181545276  0.0008631981013981  0.3850738379241056   T   T   T
  0.5211943817991284  0.0021685963393082  0.3858420564251692   T   T   T
  0.0212165194753841  0.6657789969252743  0.3850777533221456   T   T   T
  0.5212354842645527  0.6635937625006888  0.3857778053162077   T   T   T
  0.0212184906100226  0.3332821697469571  0.3862377485955149   T   T   T
  0.6462027356029978  0.3333334326740029  0.0000000000000000   F   F   F
  0.1462027356029978  0.0000000993410012  0.0000000000000000   F   F   F
  0.6462027356029978  0.6666667660079995  0.0000000000000000   F   F   F
  0.8962027356029978  0.0000000993410012  0.0000000000000000   F   F   F
  0.8962027356029978  0.3333334326740029  0.0000000000000000   F   F   F
  0.1462027356029978  0.3333334326740029  0.0000000000000000   F   F   F
  0.3962027356029978  0.6666667660079995  0.0000000000000000   F   F   F
  0.3962027356029978  0.0000000993410012  0.0000000000000000   F   F   F
  0.6462027356029978  0.0000000993410012  0.0000000000000000   F   F   F
  0.3962027356029978  0.3333334326740029  0.0000000000000000   F   F   F
  0.8962027356029978  0.6666667660079995  0.0000000000000000   F   F   F
  0.1462027356029978  0.6666667660079995  0.0000000000000000   F   F   F
  0.3962027356029978  0.8333334326740029  0.0785672911050028   F   F   F
  0.6462027356029978  0.8333334326740029  0.0785672911050028   F   F   F
  0.3962027356029978  0.1666667660079995  0.0785672911050028   F   F   F
  0.1462027356029978  0.1666667660079995  0.0785672911050028   F   F   F
  0.8962027356029978  0.1666667660079995  0.0785672911050028   F   F   F
  0.8962027356029978  0.8333334326740029  0.0785672911050028   F   F   F
  0.6462027356029978  0.1666667660079995  0.0785672911050028   F   F   F
  0.1462027356029978  0.8333334326740029  0.0785672911050028   F   F   F
  0.3962027356029978  0.5000000993410012  0.0785672911050028   F   F   F
  0.1462027356029978  0.5000000993410012  0.0785672911050028   F   F   F
  0.8962027356029978  0.5000000993410012  0.0785672911050028   F   F   F
  0.6462027356029978  0.5000000993410012  0.0785672911050028   F   F   F
  0.6460827735871625 -0.0017177831671671  0.1572333518312096   T   T   T
  0.3963073737221990  0.6683968731776224  0.1572760399935297   T   T   T
  0.6460847274385894  0.6683979589254574  0.1572350848723860   T   T   T
  0.8959862326457730  0.6666269964455408  0.1571470890043969   T   T   T
  0.1464014041741440  0.0000458931679966  0.1571987385653944   T   T   T
  0.8960016982303959  0.0001345742626038  0.1571802984944654   T   T   T
  0.3963239800669737 -0.0016606321010986  0.1572685950296531   T   T   T
  0.1464316138186946  0.6665741683352464  0.1571404669099814   T   T   T
  0.3954117499793827  0.3332979173632065  0.1568245576359909   T   T   T
  0.8959614697001195  0.3332969163348616  0.1569332691375501   T   T   T
  0.6469626824979421  0.3332721430629328  0.1568267054831939   T   T   T
  0.1464542780990092  0.3332835701111917  0.1569361523502498   T   T   T
  0.6460628387751243  0.1634402806060348  0.2348104232895981   T   T   T
  0.6461747343062566  0.8333618974007879  0.2375780158663543   T   T   T
  0.3962657418772914  0.8333941932368540  0.2375912718702778   T   T   T
  0.8962617804671987  0.4993238330257757  0.2357227974871898   T   T   T
  0.1461174206668606  0.8332118225872979  0.2357505874860618   T   T   T
  0.6460167170541224  0.5031434210430999  0.2347505458964808   T   T   T
  0.3963748934353157  0.1635115268357937  0.2348096611798910   T   T   T
  0.8963085674115459  0.1674021409043190  0.2357624093795209   T   T   T
  0.3964056572666991  0.5031256653761002  0.2347617031759908   T   T   T
  0.1461488404369580  0.4993135717225789  0.2357225495247216   T   T   T
  0.1461079005515281  0.1674020358007401  0.2357523490419600   T   T   T
  0.8962915384958501  0.8332815299823439  0.2357428217576295   T   T   T
  0.6505523602610140  0.3333864026167518  0.3073898418419069   T   T   T
  0.8962217307522043 -0.0002606888089817  0.3134677551048838   T   T   T
  0.1462656413705967  0.6669556794310378  0.3134525080146470   T   T   T
  0.3918172753961163  0.3333794908108690  0.3073702638362002   T   T   T
  0.6460239310052384  0.0024035058778738  0.3165014510167362   T   T   T
  0.6459729157874072  0.6641550210139540  0.3164256320516179   T   T   T
  0.3964146723925815  0.0024302432193233  0.3164743706214933   T   T   T
  0.8961209611618963  0.6668952897803775  0.3134550891132353   T   T   T
  0.3963991238680168  0.6642365398462682  0.3164521773762474   T   T   T
  0.8981356056522943  0.3332961223590792  0.3141466853404884   T   T   T
  0.1443706540758721  0.3333428839307673  0.3141667021945786   T   T   T
  0.1462458073418667 -0.0002326785385520  0.3134584336312607   T   T   T
  0.6380525798482641  0.8332316762799145  0.3921719427848557   T   T   T
  0.1400404240600503  0.8333614513590523  0.3914926182095144   T   T   T
  0.4043539669553193  0.8334313951987147  0.3922085662796528   T   T   T
  0.4096166415531257  0.1883620154714233  0.3878709986543616   T   T   T
  0.1406205768339667  0.1658283390503451  0.3916246900782281   T   T   T
  0.9024346669647331  0.8333052156154847  0.3914894793631272   T   T   T
  0.9018352100800291  0.1657786034644297  0.3916300612674466   T   T   T
  0.6326907699767010  0.1883779440487832  0.3878262229926676   T   T   T
  0.4097279785749902  0.4786494857939106  0.3878188935074951   T   T   T
  0.9018481409979363  0.5008323181735632  0.3915302730231198   T   T   T
  0.6328097901704599  0.4784967015770775  0.3878472134610035   T   T   T
  0.1406216549754577  0.5008757022216020  0.3915224192563312   T   T   T
  0.5212641287144770  0.3331361345588466  0.3805628392606437   T   T   T
