CeO2-110-l3-p23:                        
   1.00000000000000     
    10.9800000000000004    0.0000000000000000    0.0000000000000000
     0.0000000000000000   11.6460486861424357    0.0000000000000000
     0.0000000000000000    0.0000000000000000   24.7050405717853714
    36    72     1     1     1
Selective dynamics
Direct
  0.7712027356029978  0.1666667660079995  0.0000000000000000   F   F   F
  0.7712027356029978  0.5000000993410012  0.0000000000000000   F   F   F
  0.2712027356029978  0.1666667660079995  0.0000000000000000   F   F   F
  0.7712027356029978  0.8333334326740029  0.0000000000000000   F   F   F
  0.2712027356029978  0.5000000993410012  0.0000000000000000   F   F   F
  0.2712027356029978  0.8333334326740029  0.0000000000000000   F   F   F
  0.5212027356029978  0.0000000993410012  0.0785672911050028   F   F   F
  0.5212027356029978  0.6666667660079995  0.0785672911050028   F   F   F
  0.0212027356029978  0.0000000993410012  0.0785672911050028   F   F   F
  0.5212027356029978  0.3333334326740029  0.0785672911050028   F   F   F
  0.0212027356029978  0.3333334326740029  0.0785672911050028   F   F   F
  0.0212027356029978  0.6666667660079995  0.0785672911050028   F   F   F
  0.7706769251805730  0.1678359503679706  0.1576937672245102   T   T   T
  0.7710496706612627  0.8338938704543863  0.1574544322500843   T   T   T
  0.2714156553621561  0.1675187286327554  0.1580272467462666   T   T   T
  0.7709046961286322  0.4995926409072560  0.1576324804448843   T   T   T
  0.2716586343579745  0.5001006597012324  0.1579732743931909   T   T   T
  0.2709719291539799  0.8335961744613407  0.1569689071048576   T   T   T
  0.0202775958597662  0.6665769075149932  0.2338198021651001   T   T   T
  0.5218333772573883  0.6669846581489228  0.2335570271702270   T   T   T
  0.0212493156714797  0.3336331983062163  0.2340602631309932   T   T   T
  0.0208335104062146  0.0017692534572194  0.2337051852898779   T   T   T
  0.5221313993011508  0.0012385685017270  0.2336516587526224   T   T   T
  0.5208712957117313  0.3345852481140355  0.2360629828167318   T   T   T
  0.7693779378085495  0.5002076310571615  0.3168830721938545   T   T   T
  0.7698604256949787  0.1682400572504378  0.3172251012548424   T   T   T
  0.2702056087478757  0.5023733164917682  0.3176322248149817   T   T   T
  0.2715911614694402  0.8344663253885487  0.3129798079429678   T   T   T
  0.2731233232104227  0.1676331837196489  0.3179355631120052   T   T   T
  0.7729860818435921  0.8356613162196023  0.3160213836786173   T   T   T
  0.0209666009876552  0.0052725861426819  0.3856850921093517   T   T   T
  0.5245539251527147  0.0060294738879960  0.3852803259823736   T   T   T
  0.0174777063345665  0.6626955675157128  0.3857545849272843   T   T   T
  0.5288337347384489  0.6702851093298503  0.3848884790430414   T   T   T
  0.0202540627695336  0.3333752578761302  0.3847926775711435   T   T   T
  0.5224558033243156  0.3336595820401593  0.3915747389362410   T   T   T
  0.6462027356029978  0.3333334326740029  0.0000000000000000   F   F   F
  0.1462027356029978  0.0000000993410012  0.0000000000000000   F   F   F
  0.6462027356029978  0.6666667660079995  0.0000000000000000   F   F   F
  0.8962027356029978  0.0000000993410012  0.0000000000000000   F   F   F
  0.8962027356029978  0.3333334326740029  0.0000000000000000   F   F   F
  0.1462027356029978  0.3333334326740029  0.0000000000000000   F   F   F
  0.3962027356029978  0.6666667660079995  0.0000000000000000   F   F   F
  0.3962027356029978  0.0000000993410012  0.0000000000000000   F   F   F
  0.6462027356029978  0.0000000993410012  0.0000000000000000   F   F   F
  0.3962027356029978  0.3333334326740029  0.0000000000000000   F   F   F
  0.8962027356029978  0.6666667660079995  0.0000000000000000   F   F   F
  0.1462027356029978  0.6666667660079995  0.0000000000000000   F   F   F
  0.3962027356029978  0.8333334326740029  0.0785672911050028   F   F   F
  0.6462027356029978  0.8333334326740029  0.0785672911050028   F   F   F
  0.3962027356029978  0.1666667660079995  0.0785672911050028   F   F   F
  0.1462027356029978  0.1666667660079995  0.0785672911050028   F   F   F
  0.8962027356029978  0.1666667660079995  0.0785672911050028   F   F   F
  0.8962027356029978  0.8333334326740029  0.0785672911050028   F   F   F
  0.6462027356029978  0.1666667660079995  0.0785672911050028   F   F   F
  0.1462027356029978  0.8333334326740029  0.0785672911050028   F   F   F
  0.3962027356029978  0.5000000993410012  0.0785672911050028   F   F   F
  0.1462027356029978  0.5000000993410012  0.0785672911050028   F   F   F
  0.8962027356029978  0.5000000993410012  0.0785672911050028   F   F   F
  0.6462027356029978  0.5000000993410012  0.0785672911050028   F   F   F
  0.6464465185825986  0.0009449394662904  0.1565562648737875   T   T   T
  0.3958562758195388  0.6667256781912304  0.1566772370734133   T   T   T
  0.6465507393783159  0.6664375806352862  0.1568732653902713   T   T   T
  0.8959335483834636  0.6673763888208448  0.1570391138748716   T   T   T
  0.1464526726767130  0.0003251293218862  0.1567911019861513   T   T   T
  0.8959855998724040  0.0001967998193100  0.1570682516233588   T   T   T
  0.3958057450977545  0.0012511094415257  0.1572582602020769   T   T   T
  0.1462604032661498  0.6666188250817955  0.1570706254725858   T   T   T
  0.3958982757232761  0.3333316651192843  0.1576082666986982   T   T   T
  0.8961071636291660  0.3335764909532815  0.1567307451179662   T   T   T
  0.6459187355254853  0.3341305447321714  0.1573007905953830   T   T   T
  0.1465569769434648  0.3341214794457528  0.1574436433926512   T   T   T
  0.6453459566760468  0.1680306827430602  0.2351268421090531   T   T   T
  0.6456550791217504  0.8352391543302782  0.2342108680434509   T   T   T
  0.3950766147194156  0.8329454229610361  0.2348294268662355   T   T   T
  0.8964946894626243  0.5001374047850745  0.2348236660834052   T   T   T
  0.1466939250410551  0.8341489808287805  0.2350108935898263   T   T   T
  0.6452788427529295  0.4998122500744314  0.2358017819534604   T   T   T
  0.3962091572478443  0.1688247194128978  0.2373869813916724   T   T   T
  0.8963627795320732  0.1678090956696169  0.2351015782967021   T   T   T
  0.3957086162181787  0.5010382399550805  0.2358168602569767   T   T   T
  0.1464657961869756  0.5021720158362024  0.2368219816176307   T   T   T
  0.1461615028007071  0.1656739178681878  0.2355384972927537   T   T   T
  0.8968016023546428  0.8341443959480727  0.2357957047575496   T   T   T
  0.6475675501138430  0.3324828818127828  0.3144060171657717   T   T   T
  0.8973461778176750  0.0034132350494165  0.3132084571567002   T   T   T
  0.1442222322524553  0.6724999510915696  0.3141506573212440   T   T   T
  0.3938191047035581  0.3405511511427382  0.3166996972799413   T   T   T
  0.6470740875769588  0.0015734033028612  0.3114875317610050   T   T   T
  0.6489870673919296  0.6708384393872164  0.3107097216268188   T   T   T
  0.3975219886072116  0.9956700845190180  0.3125428477732602   T   T   T
  0.8962989448465470  0.6651143865484501  0.3130927214199981   T   T   T
  0.3987128006346362  0.6682842659685247  0.3130588910098231   T   T   T
  0.8968700980449823  0.3343826747659535  0.3129795837975760   T   T   T
  0.1459792075037706  0.3322412543130481  0.3126641850021379   T   T   T
  0.1461156104388328  0.9975543676333369  0.3139000703130422   T   T   T
  0.6402740910229113  0.8366804173352298  0.3893396894135928   T   T   T
  0.1486684397109692  0.8421912060707512  0.3996824269670955   T   T   T
  0.3974361319974436  0.8340952428340139  0.3950335827901202   T   T   T
  0.4003268289380960  0.1570280726256240  0.3906879678047442   T   T   T
  0.1394590238183910  0.1665660897280658  0.3908832501583349   T   T   T
  0.9087495131041040  0.8345539657041504  0.3885815002832625   T   T   T
  0.9031776535008843  0.1689993930529917  0.3915842760530098   T   T   T
  0.6450130987888882  0.1565991385297724  0.3926582168879317   T   T   T
  0.3937720029003024  0.5167696762645596  0.4011194276978155   T   T   T
  0.9013606828724817  0.5000223626182172  0.3919583147373102   T   T   T
  0.6409777422635891  0.5123171963336538  0.3891928398555226   T   T   T
  0.1372101945997529  0.4966373225748205  0.3885902714610195   T   T   T
  0.2689606711103330  0.7329187632922606  0.4357327549414114   T   T   T
  0.3786461926055625  0.5434177610612889  0.5012969299667536   T   T   T
  0.3481245687698467  0.5972261199086054  0.4625138046371381   T   T   T
