CeO2-110-l3-p23:                        
   1.00000000000000     
    10.9800000000000004    0.0000000000000000    0.0000000000000000
     0.0000000000000000   11.6460486861424357    0.0000000000000000
     0.0000000000000000    0.0000000000000000   24.7050405717853714
    35    72     2     1     1
Selective dynamics
Direct
  0.7712027356029978  0.1666667660079995  0.0000000000000000   F   F   F
  0.7712027356029978  0.5000000993410012  0.0000000000000000   F   F   F
  0.2712027356029978  0.1666667660079995  0.0000000000000000   F   F   F
  0.7712027356029978  0.8333334326740029  0.0000000000000000   F   F   F
  0.2712027356029978  0.5000000993410012  0.0000000000000000   F   F   F
  0.2712027356029978  0.8333334326740029  0.0000000000000000   F   F   F
  0.5212027356029978  0.0000000993410012  0.0785672911050028   F   F   F
  0.5212027356029978  0.6666667660079995  0.0785672911050028   F   F   F
  0.0212027356029978  0.0000000993410012  0.0785672911050028   F   F   F
  0.5212027356029978  0.3333334326740029  0.0785672911050028   F   F   F
  0.0212027356029978  0.3333334326740029  0.0785672911050028   F   F   F
  0.0212027356029978  0.6666667660079995  0.0785672911050028   F   F   F
  0.7718589223627661  0.1660179354430330  0.1575039443238664   T   T   T
  0.7713122269297736  0.8315839845008568  0.1581241992326190   T   T   T
  0.2718288835989183  0.1653094113007881  0.1575340383749673   T   T   T
  0.7715985574214612  0.5001742034143032  0.1569144550959731   T   T   T
  0.2719341815801524  0.5005566208330993  0.1584099733746925   T   T   T
  0.2724183866729650  0.8323337200187180  0.1576459754258397   T   T   T
  0.0237404916712744  0.6647554752430339  0.2350415122921312   T   T   T
  0.5209429158699850  0.6648911490341992  0.2358423961441539   T   T   T
  0.0257066842457858  0.3325563956130496  0.2340053816593947   T   T   T
  0.0216318789959689  0.9978054822312846  0.2338179232436844   T   T   T
  0.5225659875219137  0.0005549891728794  0.2345176221425246   T   T   T
  0.5188642979569927  0.3323318873632482  0.2326456378739183   T   T   T
  0.7725785564933232  0.4958574157669210  0.3122410407651054   T   T   T
  0.7736702123327541  0.1671835407479447  0.3145865895724436   T   T   T
  0.2743505188462609  0.4988090675672949  0.3216356740609271   T   T   T
  0.2744221204014758  0.8319284289598953  0.3160173795875444   T   T   T
  0.2701170231877565  0.1646383312705477  0.3168010593720910   T   T   T
  0.7707845230162667  0.8316188834356808  0.3177564504750697   T   T   T
  0.0229615003276515  0.0009502908716555  0.3847563328978463   T   T   T
  0.5168122433556713  0.9923409741409406  0.3864930521838391   T   T   T
  0.0272208343701878  0.6805547776104915  0.3880471983476126   T   T   T
  0.5226823218587525  0.6728594758017885  0.3912430905320252   T   T   T
  0.0124157527656852  0.3247048509438246  0.3865924765207405   T   T   T
  0.6462027356029978  0.3333334326740029  0.0000000000000000   F   F   F
  0.1462027356029978  0.0000000993410012  0.0000000000000000   F   F   F
  0.6462027356029978  0.6666667660079995  0.0000000000000000   F   F   F
  0.8962027356029978  0.0000000993410012  0.0000000000000000   F   F   F
  0.8962027356029978  0.3333334326740029  0.0000000000000000   F   F   F
  0.1462027356029978  0.3333334326740029  0.0000000000000000   F   F   F
  0.3962027356029978  0.6666667660079995  0.0000000000000000   F   F   F
  0.3962027356029978  0.0000000993410012  0.0000000000000000   F   F   F
  0.6462027356029978  0.0000000993410012  0.0000000000000000   F   F   F
  0.3962027356029978  0.3333334326740029  0.0000000000000000   F   F   F
  0.8962027356029978  0.6666667660079995  0.0000000000000000   F   F   F
  0.1462027356029978  0.6666667660079995  0.0000000000000000   F   F   F
  0.3962027356029978  0.8333334326740029  0.0785672911050028   F   F   F
  0.6462027356029978  0.8333334326740029  0.0785672911050028   F   F   F
  0.3962027356029978  0.1666667660079995  0.0785672911050028   F   F   F
  0.1462027356029978  0.1666667660079995  0.0785672911050028   F   F   F
  0.8962027356029978  0.1666667660079995  0.0785672911050028   F   F   F
  0.8962027356029978  0.8333334326740029  0.0785672911050028   F   F   F
  0.6462027356029978  0.1666667660079995  0.0785672911050028   F   F   F
  0.1462027356029978  0.8333334326740029  0.0785672911050028   F   F   F
  0.3962027356029978  0.5000000993410012  0.0785672911050028   F   F   F
  0.1462027356029978  0.5000000993410012  0.0785672911050028   F   F   F
  0.8962027356029978  0.5000000993410012  0.0785672911050028   F   F   F
  0.6462027356029978  0.5000000993410012  0.0785672911050028   F   F   F
  0.6472675794129947  0.9976227798645745  0.1572105033808075   T   T   T
  0.3966435938879780  0.6654809292995938  0.1573692276199520   T   T   T
  0.6466770604017662  0.6682964465420844  0.1573196650263229   T   T   T
  0.8972135568416093  0.6662286903265174  0.1570983366595566   T   T   T
  0.1469078392131651  0.9994511958224538  0.1571164097757886   T   T   T
  0.8965655887154265  0.9970385829579993  0.1574256949429568   T   T   T
  0.3969123321687969  0.9983476762486269  0.1568368861669200   T   T   T
  0.1466661365716656  0.6653960073998996  0.1575790749207526   T   T   T
  0.3955470666650795  0.3339631715933518  0.1566430364027721   T   T   T
  0.8971548421022635  0.3336478359136796  0.1572722115958979   T   T   T
  0.6467066552087420  0.3328507614270197  0.1565169708435696   T   T   T
  0.1477657728499275  0.3336304904022240  0.1571450150073249   T   T   T
  0.6479492379458162  0.1644090501892832  0.2340701858925980   T   T   T
  0.6473247052289520  0.8327225848338767  0.2385708601731813   T   T   T
  0.3976706454054024  0.8313651662731573  0.2351783012170037   T   T   T
  0.8968241424804415  0.5014684868998683  0.2356906630704562   T   T   T
  0.1471650831186646  0.8313562228376309  0.2353375846197317   T   T   T
  0.6477391949635951  0.5013875332094462  0.2335737434556482   T   T   T
  0.3965222427181179  0.1635940086543462  0.2334893090374023   T   T   T
  0.8976674281967257  0.1642058910047396  0.2346185193573386   T   T   T
  0.3968968935378250  0.5001701133542791  0.2369573227820955   T   T   T
  0.1479953811573106  0.5000408239541363  0.2374655872909455   T   T   T
  0.1469468383879250  0.1662437280443464  0.2360220246996051   T   T   T
  0.8970717064212073  0.8269696247605415  0.2374334883256186   T   T   T
  0.6472911512883139  0.3389026535893387  0.3077579313120769   T   T   T
  0.8972757420612465  0.9974115363090419  0.3118831631985753   T   T   T
  0.1483131430672690  0.6690093315438990  0.3154520811310214   T   T   T
  0.3858593689193377  0.3295013420401333  0.3105745848581687   T   T   T
  0.6490735130432179  0.0049484924055414  0.3164014986641065   T   T   T
  0.6475541481948035  0.6574452950105858  0.3160111607587139   T   T   T
  0.3971942275072790  0.9954345808409560  0.3119765667146507   T   T   T
  0.8992027555719838  0.6570197173029851  0.3192431896029048   T   T   T
  0.3955705616740811  0.6672126392537032  0.3145650715087496   T   T   T
  0.9007892735154439  0.3304356148094221  0.3092175110619029   T   T   T
  0.1454057484584714  0.3329703308252071  0.3161421978498941   T   T   T
  0.1467640307099771  0.9972970119035541  0.3125753311991995   T   T   T
  0.6414350571509324  0.8395108157171197  0.3903525306504331   T   T   T
  0.1427370836337700  0.8346990875183052  0.3928303300243816   T   T   T
  0.4001405627551573  0.8385778616262466  0.3932069863009210   T   T   T
  0.4056296959337740  0.1521798939099802  0.3935815845488509   T   T   T
  0.1390903839870979  0.1614748195028643  0.3914253043901637   T   T   T
  0.9043996350979919  0.8357036526793428  0.3913209489119760   T   T   T
  0.9021195700307210  0.1600173872580503  0.3888340418578114   T   T   T
  0.6646922833542843  0.2192866597400176  0.3993438839216446   T   T   T
  0.4057533316942860  0.5077257378278250  0.3939115628789208   T   T   T
  0.8401291614719668  0.4333955160859742  0.3987212179544918   T   T   T
  0.6537969950205127  0.5734529490403967  0.4334631884395742   T   T   T
  0.1073322305363262  0.5038388573801978  0.3918891097271545   T   T   T
  0.5219222370393743  0.2559929938251091  0.3538008597277851   T   T   T
  0.6594211050747383  0.4049057442152292  0.4215192580133807   T   T   T
  0.4890826457955724  0.4028770186791484  0.4425075305236081   T   T   T
  0.4187390294941217  0.3742438999128606  0.4757337052704194   T   T   T
