CeO2-110-l3-p23:                        
   1.00000000000000     
    10.9800000000000004    0.0000000000000000    0.0000000000000000
     0.0000000000000000   11.6460486861424357    0.0000000000000000
     0.0000000000000000    0.0000000000000000   24.7050405717853714
    36    71     1     3     1
Selective dynamics
Direct
  0.7712027356029978  0.1666667660079995  0.0000000000000000   F   F   F
  0.7712027356029978  0.5000000993410012  0.0000000000000000   F   F   F
  0.2712027356029978  0.1666667660079995  0.0000000000000000   F   F   F
  0.7712027356029978  0.8333334326740029  0.0000000000000000   F   F   F
  0.2712027356029978  0.5000000993410012  0.0000000000000000   F   F   F
  0.2712027356029978  0.8333334326740029  0.0000000000000000   F   F   F
  0.5212027356029978  0.0000000993410012  0.0785672911050028   F   F   F
  0.5212027356029978  0.6666667660079995  0.0785672911050028   F   F   F
  0.0212027356029978  0.0000000993410012  0.0785672911050028   F   F   F
  0.5212027356029978  0.3333334326740029  0.0785672911050028   F   F   F
  0.0212027356029978  0.3333334326740029  0.0785672911050028   F   F   F
  0.0212027356029978  0.6666667660079995  0.0785672911050028   F   F   F
  0.7712140313212973  0.1676420761817702  0.1575437242174152   T   T   T
  0.7712784209469111  0.8345709521301692  0.1569142236626189   T   T   T
  0.2712478275259649  0.1671661639831575  0.1582088963956440   T   T   T
  0.7712462344311297  0.4985511623914609  0.1574323579967817   T   T   T
  0.2711948003855135  0.4986646281374990  0.1571736666113285   T   T   T
  0.2712074186966252  0.8333028466098401  0.1568236746756798   T   T   T
  0.0193425660326181  0.6663071230734317  0.2328370345116743   T   T   T
  0.5231338287320437  0.6664845018788955  0.2326639704211383   T   T   T
  0.0211465994385122  0.3326689150552663  0.2357654700436685   T   T   T
  0.0215524534595737  0.0007519685110403  0.2337493645936276   T   T   T
  0.5208913318973037  0.0007641206977383  0.2337501601508833   T   T   T
  0.5213607356365749  0.3326134669491981  0.2358158617540422   T   T   T
  0.7712078885473814  0.4986559948256708  0.3158457081654220   T   T   T
  0.7713362241884649  0.1680018695037640  0.3169458988842249   T   T   T
  0.2714593491695006  0.5019506666539605  0.3132226282842514   T   T   T
  0.2711495437229468  0.8278073372107204  0.3125350077764799   T   T   T
  0.2713019271937081  0.1654405349696309  0.3193560323153106   T   T   T
  0.7711636189062524  0.8376284412120469  0.3140400246733598   T   T   T
  0.0173441298147566  0.0054624289219983  0.3858208290134104   T   T   T
  0.5251569256061414  0.0054549274455024  0.3858533736891880   T   T   T
  0.0073452330967039  0.6681519313246788  0.3852108406374044   T   T   T
  0.5343138398477990  0.6678027228474188  0.3846488857364657   T   T   T
  0.0185431943433195  0.3313366726084756  0.3904768138108417   T   T   T
  0.5239215606482459  0.3311673797266792  0.3906642759442065   T   T   T
  0.6462027356029978  0.3333334326740029  0.0000000000000000   F   F   F
  0.1462027356029978  0.0000000993410012  0.0000000000000000   F   F   F
  0.6462027356029978  0.6666667660079995  0.0000000000000000   F   F   F
  0.8962027356029978  0.0000000993410012  0.0000000000000000   F   F   F
  0.8962027356029978  0.3333334326740029  0.0000000000000000   F   F   F
  0.1462027356029978  0.3333334326740029  0.0000000000000000   F   F   F
  0.3962027356029978  0.6666667660079995  0.0000000000000000   F   F   F
  0.3962027356029978  0.0000000993410012  0.0000000000000000   F   F   F
  0.6462027356029978  0.0000000993410012  0.0000000000000000   F   F   F
  0.3962027356029978  0.3333334326740029  0.0000000000000000   F   F   F
  0.8962027356029978  0.6666667660079995  0.0000000000000000   F   F   F
  0.1462027356029978  0.6666667660079995  0.0000000000000000   F   F   F
  0.3962027356029978  0.8333334326740029  0.0785672911050028   F   F   F
  0.6462027356029978  0.8333334326740029  0.0785672911050028   F   F   F
  0.3962027356029978  0.1666667660079995  0.0785672911050028   F   F   F
  0.1462027356029978  0.1666667660079995  0.0785672911050028   F   F   F
  0.8962027356029978  0.1666667660079995  0.0785672911050028   F   F   F
  0.8962027356029978  0.8333334326740029  0.0785672911050028   F   F   F
  0.6462027356029978  0.1666667660079995  0.0785672911050028   F   F   F
  0.1462027356029978  0.8333334326740029  0.0785672911050028   F   F   F
  0.3962027356029978  0.5000000993410012  0.0785672911050028   F   F   F
  0.1462027356029978  0.5000000993410012  0.0785672911050028   F   F   F
  0.8962027356029978  0.5000000993410012  0.0785672911050028   F   F   F
  0.6462027356029978  0.5000000993410012  0.0785672911050028   F   F   F
  0.6460645527922305  0.0005993789747587  0.1565990281956510   T   T   T
  0.3959513839579213  0.6660297540075056  0.1564784810179137   T   T   T
  0.6472124676978406  0.6665637729926162  0.1565269659891198   T   T   T
  0.8953087073569634  0.6666050035669020  0.1565448814341403   T   T   T
  0.1466910290186162  0.0016579568306178  0.1570908144473770   T   T   T
  0.8963863794522852  0.0005249113557298  0.1565717356734307   T   T   T
  0.3957602470426839  0.0018496917329011  0.1570293765395979   T   T   T
  0.1465186207401273  0.6661257513245271  0.1565016297635057   T   T   T
  0.3960954438409529  0.3312667090088422  0.1575928840968191   T   T   T
  0.8965006895767142  0.3336996283177608  0.1570433902676866   T   T   T
  0.6459497701360971  0.3336637486258007  0.1570335658344491   T   T   T
  0.1464096866221217  0.3312502625775547  0.1575406187292252   T   T   T
  0.6455245408458995  0.1675264763193957  0.2346731245495050   T   T   T
  0.6457843367482594  0.8358140222813950  0.2342951366289032   T   T   T
  0.3952714132623538  0.8342145354668499  0.2339509747207833   T   T   T
  0.8969730003651868  0.4987768213014259  0.2352461383679883   T   T   T
  0.1471794768547371  0.8337613250143432  0.2342008347344275   T   T   T
  0.6453876189409923  0.4984509186779817  0.2353028444390459   T   T   T
  0.3959557341807969  0.1658945698796384  0.2386332651478604   T   T   T
  0.8970530132465744  0.1673205967649336  0.2345981708062149   T   T   T
  0.3952417767238727  0.4980259132224714  0.2348626929982165   T   T   T
  0.1470465289832774  0.4981082693159514  0.2347287283829634   T   T   T
  0.1466011763756874  0.1659533302865016  0.2386124271862439   T   T   T
  0.8966840163716927  0.8357237204752860  0.2343276796462103   T   T   T
  0.6472991056018981  0.3307706809274081  0.3138970957096386   T   T   T
  0.8969585176375086  0.0034470423123257  0.3114873957885325   T   T   T
  0.1396639303772829  0.6656919835053345  0.3091244340516802   T   T   T
  0.3945530314855459  0.3399463594429619  0.3167278243937974   T   T   T
  0.6455623007630942  0.0034840335421310  0.3115093840688256   T   T   T
  0.6507752007867017  0.6699179036443624  0.3103278097468330   T   T   T
  0.3969200136968375  0.9892055307369551  0.3155128053212257   T   T   T
  0.8915522015004644  0.6699847225934557  0.3105458147010813   T   T   T
  0.4025735116081461  0.6667879422211498  0.3085294646023554   T   T   T
  0.8954410065673726  0.3311298113061711  0.3134908273518876   T   T   T
  0.1483077581332726  0.3402874279014449  0.3168094512950806   T   T   T
  0.1455444775414670  0.9893841045055896  0.3154941354149488   T   T   T
  0.6372362119226852  0.8406287159320958  0.3888441902008736   T   T   T
  0.1519515555262892  0.8050440080537149  0.4008165942420190   T   T   T
  0.3899777854938446  0.8043664511791331  0.4007015484258482   T   T   T
  0.4001012379012919  0.1555567912145639  0.3914405279540079   T   T   T
  0.1420797984282878  0.1558810060527620  0.3914563355890086   T   T   T
  0.9046429977797116  0.8411698080743732  0.3889577246377329   T   T   T
  0.8997865731647678  0.1580847938166324  0.3929436380534774   T   T   T
  0.6425032772828930  0.1575721083667068  0.3931938098075611   T   T   T
  0.9011176568060048  0.5061819673125110  0.3895953375224306   T   T   T
  0.6403306675390378  0.5066767896008488  0.3895075368748578   T   T   T
  0.1512792312905650  0.5321742069129977  0.4031314446885987   T   T   T
  0.2707833643854422  0.6680425740911744  0.4099620762471927   T   T   T
  0.3880071974116693  0.5310354908300998  0.3999758465773823   T   T   T
  0.4386483418307020  0.5260755531115932  0.5217444345764705   T   T   T
  0.2809541021535449  0.6513846914784462  0.5477868087890174   T   T   T
  0.3589691925906526  0.5889339359737998  0.5337643485429333   T   T   T
