CeO2-110-l3-p23:                        
   1.00000000000000     
    10.9800000000000004    0.0000000000000000    0.0000000000000000
     0.0000000000000000   11.6460486861424357    0.0000000000000000
     0.0000000000000000    0.0000000000000000   24.7050405717853714
    35    71     2     2     1     1
Selective dynamics
Direct
  0.7712027356029978  0.1666667660079995  0.0000000000000000   F   F   F
  0.7712027356029978  0.5000000993410012  0.0000000000000000   F   F   F
  0.2712027356029978  0.1666667660079995  0.0000000000000000   F   F   F
  0.7712027356029978  0.8333334326740029  0.0000000000000000   F   F   F
  0.2712027356029978  0.5000000993410012  0.0000000000000000   F   F   F
  0.2712027356029978  0.8333334326740029  0.0000000000000000   F   F   F
  0.5212027356029978  0.0000000993410012  0.0785672911050028   F   F   F
  0.5212027356029978  0.6666667660079995  0.0785672911050028   F   F   F
  0.0212027356029978  0.0000000993410012  0.0785672911050028   F   F   F
  0.5212027356029978  0.3333334326740029  0.0785672911050028   F   F   F
  0.0212027356029978  0.3333334326740029  0.0785672911050028   F   F   F
  0.0212027356029978  0.6666667660079995  0.0785672911050028   F   F   F
  0.7710515163122356  0.1677721050699450  0.1576368349515253   T   T   T
  0.7710990919106765  0.8333650914117053  0.1576861973474894   T   T   T
  0.2706015888376155  0.1666626759208393  0.1575520965334728   T   T   T
  0.7716006448331508  0.5003520322801644  0.1566295022898420   T   T   T
  0.2703143081604547  0.5002943386527634  0.1581920269936764   T   T   T
  0.2713564842410575  0.8341159180906463  0.1571548056469212   T   T   T
  0.0223123358506219  0.6660614943689189  0.2344983669822479   T   T   T
  0.5199106992349387  0.6686518504012404  0.2331640582531920   T   T   T
  0.0231203340732562  0.3351875559060474  0.2357850315757123   T   T   T
  0.0215790002446082  0.9993544283655050  0.2336390801396485   T   T   T
  0.5226555884734165  0.0025949005647244  0.2341424764669557   T   T   T
  0.5167643518340498  0.3337316775537702  0.2326758597911972   T   T   T
  0.7648933832755261  0.5019067766511337  0.3112569587560791   T   T   T
  0.7770217068209603  0.1688262181668136  0.3154257973148406   T   T   T
  0.2719523027768483  0.5026491700471490  0.3203247003530649   T   T   T
  0.2755040697196396  0.8346442971251019  0.3148317971161251   T   T   T
  0.2676418121590882  0.1657729350274513  0.3168789347976930   T   T   T
  0.7717953730278728  0.8334441181129861  0.3167147439013585   T   T   T
  0.0243078335355274  0.0002134260054529  0.3846605957186063   T   T   T
  0.5208558683723556  0.9889755246203124  0.3870446546239583   T   T   T
  0.0296586161677000  0.6824163744165688  0.3873812656434831   T   T   T
  0.5216967230367630  0.6660762795772041  0.3856103425419178   T   T   T
  0.0198881819219808  0.3236826558545783  0.3909408106869758   T   T   T
  0.6462027356029978  0.3333334326740029  0.0000000000000000   F   F   F
  0.1462027356029978  0.0000000993410012  0.0000000000000000   F   F   F
  0.6462027356029978  0.6666667660079995  0.0000000000000000   F   F   F
  0.8962027356029978  0.0000000993410012  0.0000000000000000   F   F   F
  0.8962027356029978  0.3333334326740029  0.0000000000000000   F   F   F
  0.1462027356029978  0.3333334326740029  0.0000000000000000   F   F   F
  0.3962027356029978  0.6666667660079995  0.0000000000000000   F   F   F
  0.3962027356029978  0.0000000993410012  0.0000000000000000   F   F   F
  0.6462027356029978  0.0000000993410012  0.0000000000000000   F   F   F
  0.3962027356029978  0.3333334326740029  0.0000000000000000   F   F   F
  0.8962027356029978  0.6666667660079995  0.0000000000000000   F   F   F
  0.1462027356029978  0.6666667660079995  0.0000000000000000   F   F   F
  0.3962027356029978  0.8333334326740029  0.0785672911050028   F   F   F
  0.6462027356029978  0.8333334326740029  0.0785672911050028   F   F   F
  0.3962027356029978  0.1666667660079995  0.0785672911050028   F   F   F
  0.1462027356029978  0.1666667660079995  0.0785672911050028   F   F   F
  0.8962027356029978  0.1666667660079995  0.0785672911050028   F   F   F
  0.8962027356029978  0.8333334326740029  0.0785672911050028   F   F   F
  0.6462027356029978  0.1666667660079995  0.0785672911050028   F   F   F
  0.1462027356029978  0.8333334326740029  0.0785672911050028   F   F   F
  0.3962027356029978  0.5000000993410012  0.0785672911050028   F   F   F
  0.1462027356029978  0.5000000993410012  0.0785672911050028   F   F   F
  0.8962027356029978  0.5000000993410012  0.0785672911050028   F   F   F
  0.6462027356029978  0.5000000993410012  0.0785672911050028   F   F   F
  0.6469905293192820  0.0001204920467294  0.1565238271571675   T   T   T
  0.3951873260503747  0.6661551586934854  0.1568710830466543   T   T   T
  0.6465349256369890  0.6690827266837370  0.1565139817301198   T   T   T
  0.8964369872974979  0.6673181991319213  0.1565855175606148   T   T   T
  0.1463654370822946  0.0004355564707696  0.1566206471643030   T   T   T
  0.8962069193581316  0.9995782548752519  0.1578898802410159   T   T   T
  0.3963652645923518  0.0017314423654614  0.1566750585607753   T   T   T
  0.1459890673004216  0.6659067760000075  0.1573139045137820   T   T   T
  0.3943549586303797  0.3336359377205190  0.1563162941058751   T   T   T
  0.8960848387254869  0.3336772813196013  0.1572242392515954   T   T   T
  0.6454820276006911  0.3331297547863586  0.1566187366682638   T   T   T
  0.1460307685310600  0.3344216158436726  0.1577385381828844   T   T   T
  0.6471887381323038  0.1653728946970232  0.2347016552455898   T   T   T
  0.6469987415974341  0.8376819960637606  0.2362205973862106   T   T   T
  0.3970388840930744  0.8369704247525589  0.2335350260002841   T   T   T
  0.8953302157002244  0.5025135843135702  0.2344446949900344   T   T   T
  0.1463500659465099  0.8334144934090699  0.2344123459255227   T   T   T
  0.6452477698787049  0.5023027263131170  0.2330078267028741   T   T   T
  0.3947911514170724  0.1673515314184379  0.2354054965516730   T   T   T
  0.8970124656856624  0.1696999007439763  0.2365016728555813   T   T   T
  0.3941736294460795  0.4979556772581938  0.2365276799306741   T   T   T
  0.1453201088550319  0.5015364227881861  0.2373229067475544   T   T   T
  0.1454120762507906  0.1665834463628303  0.2357303010124662   T   T   T
  0.8963855534848744  0.8275334069123904  0.2369154271817847   T   T   T
  0.6412427729609068  0.3403682173461096  0.3074980493610784   T   T   T
  0.8972521801582145  0.9974051842822245  0.3106867449143370   T   T   T
  0.1489817742476505  0.6730264710807495  0.3139806300543138   T   T   T
  0.3924490490206244  0.3301673067046407  0.3166936476122297   T   T   T
  0.6486338617059053  0.0043340857786128  0.3167564597890568   T   T   T
  0.6454827467755193  0.6676245276953832  0.3106229413698123   T   T   T
  0.3984540369331883  0.9986228373384055  0.3131220159035415   T   T   T
  0.8987829351331598  0.6578121579002130  0.3190979311800352   T   T   T
  0.3984686551803797  0.6727340415817107  0.3092468073922658   T   T   T
  0.8994717043319399  0.3414383455861288  0.3146855019292871   T   T   T
  0.1486396242457438  0.3314336326225527  0.3151130356484922   T   T   T
  0.1471300959856226  0.9987608540022809  0.3116841528310563   T   T   T
  0.6423356217962998  0.8326811338617260  0.3907798116038509   T   T   T
  0.1453685514102683  0.8369120893392756  0.3922230692518541   T   T   T
  0.4036126143439645  0.8342832815378826  0.3911092554696191   T   T   T
  0.4099216011436609  0.1536470701787282  0.3952931125379852   T   T   T
  0.1460335143446568  0.1585994857242672  0.3924269897895286   T   T   T
  0.9052718178755425  0.8362442669677264  0.3908664672273854   T   T   T
  0.9074938310656970  0.1551671690675879  0.3874474889913031   T   T   T
  0.6665171008492170  0.1853781100721721  0.4004534020232964   T   T   T
  0.8740992531905070  0.3985512794115900  0.4359092322942706   T   T   T
  0.6842695833700432  0.5292194446178390  0.3962520081787452   T   T   T
  0.1077629342261271  0.5080162995165129  0.3889246589734877   T   T   T
  0.5272948987533543  0.2587793367774472  0.3597881961437553   T   T   T
  0.7063211334284512  0.3594376346172888  0.4109795957518618   T   T   T
  0.3879674162806145  0.5356561960907044  0.3911104827554066   T   T   T
  0.4181123211681383  0.4029934977963992  0.5031973169193991   T   T   T
  0.4749071314370603  0.3187425094480595  0.5104769772446431   T   T   T
  0.5308097328012062  0.2344469026375571  0.5191397509812593   T   T   T
