CeO2-110-l3-p23:                        
   1.00000000000000     
    10.9800000000000004    0.0000000000000000    0.0000000000000000
     0.0000000000000000   11.6460486861424357    0.0000000000000000
     0.0000000000000000    0.0000000000000000   24.7050405717853714
   Ce   O    Pt   C    O 
    35    72     2     1     3
Selective dynamics
Direct
  0.7712027356029978  0.1666667660079995  0.0000000000000000   F   F   F
  0.7712027356029978  0.5000000993410012  0.0000000000000000   F   F   F
  0.2712027356029978  0.1666667660079995  0.0000000000000000   F   F   F
  0.7712027356029978  0.8333334326740029  0.0000000000000000   F   F   F
  0.2712027356029978  0.5000000993410012  0.0000000000000000   F   F   F
  0.2712027356029978  0.8333334326740029  0.0000000000000000   F   F   F
  0.5212027356029978  0.0000000993410012  0.0785672911050028   F   F   F
  0.5212027356029978  0.6666667660079995  0.0785672911050028   F   F   F
  0.0212027356029978  0.0000000993410012  0.0785672911050028   F   F   F
  0.5212027356029978  0.3333334326740029  0.0785672911050028   F   F   F
  0.0212027356029978  0.3333334326740029  0.0785672911050028   F   F   F
  0.0212027356029978  0.6666667660079995  0.0785672911050028   F   F   F
  0.7708776595974945  0.1668100120507092  0.1574040358809342   T   T   T
  0.7706299230921076  0.8324332629005096  0.1580702446907617   T   T   T
  0.2710529489488028  0.1662921719640184  0.1575274756668754   T   T   T
  0.7707963170401920  0.5002587631230155  0.1565811974012237   T   T   T
  0.2710155502206482  0.5009794898645222  0.1581331852390451   T   T   T
  0.2714817492772800  0.8337783930864054  0.1572802909755820   T   T   T
  0.0213785166227406  0.6667377964192331  0.2346153483605636   T   T   T
  0.5192830926112377  0.6670669420320475  0.2350392369441520   T   T   T
  0.0241308491522059  0.3330216990334962  0.2342374127516811   T   T   T
  0.0195536515819606  0.9989156310679657  0.2337832690048450   T   T   T
  0.5202254012170111  0.0020849077523783  0.2345270593540790   T   T   T
  0.5170948537137865  0.3338344784282044  0.2333162517220130   T   T   T
  0.7703747663222763  0.4982873133376167  0.3107671520173137   T   T   T
  0.7716860759069250  0.1680754481213083  0.3143015079503303   T   T   T
  0.2690805582943385  0.5029966085074103  0.3196693964693875   T   T   T
  0.2714627202040488  0.8348331582378495  0.3151966533041344   T   T   T
  0.2670344573903887  0.1674657487004829  0.3173973031613642   T   T   T
  0.7665887056319156  0.8320553685495448  0.3182276984882723   T   T   T
  0.0197187662704276  0.0023752523855163  0.3848547631679530   T   T   T
  0.5137685348455233  0.9909000933247066  0.3869043544952662   T   T   T
  0.0237952875133700  0.6839783087996996  0.3880904229404309   T   T   T
  0.5114499528390646  0.6691580893966979  0.3902859998383250   T   T   T
  0.0086366523801293  0.3247362362766110  0.3875502694206150   T   T   T
  0.6462027356029978  0.3333334326740029  0.0000000000000000   F   F   F
  0.1462027356029978  0.0000000993410012  0.0000000000000000   F   F   F
  0.6462027356029978  0.6666667660079995  0.0000000000000000   F   F   F
  0.8962027356029978  0.0000000993410012  0.0000000000000000   F   F   F
  0.8962027356029978  0.3333334326740029  0.0000000000000000   F   F   F
  0.1462027356029978  0.3333334326740029  0.0000000000000000   F   F   F
  0.3962027356029978  0.6666667660079995  0.0000000000000000   F   F   F
  0.3962027356029978  0.0000000993410012  0.0000000000000000   F   F   F
  0.6462027356029978  0.0000000993410012  0.0000000000000000   F   F   F
  0.3962027356029978  0.3333334326740029  0.0000000000000000   F   F   F
  0.8962027356029978  0.6666667660079995  0.0000000000000000   F   F   F
  0.1462027356029978  0.6666667660079995  0.0000000000000000   F   F   F
  0.3962027356029978  0.8333334326740029  0.0785672911050028   F   F   F
  0.6462027356029978  0.8333334326740029  0.0785672911050028   F   F   F
  0.3962027356029978  0.1666667660079995  0.0785672911050028   F   F   F
  0.1462027356029978  0.1666667660079995  0.0785672911050028   F   F   F
  0.8962027356029978  0.1666667660079995  0.0785672911050028   F   F   F
  0.8962027356029978  0.8333334326740029  0.0785672911050028   F   F   F
  0.6462027356029978  0.1666667660079995  0.0785672911050028   F   F   F
  0.1462027356029978  0.8333334326740029  0.0785672911050028   F   F   F
  0.3962027356029978  0.5000000993410012  0.0785672911050028   F   F   F
  0.1462027356029978  0.5000000993410012  0.0785672911050028   F   F   F
  0.8962027356029978  0.5000000993410012  0.0785672911050028   F   F   F
  0.6462027356029978  0.5000000993410012  0.0785672911050028   F   F   F
  0.6461534967662921  0.9986843825580989  0.1576722829134755   T   T   T
  0.3956174378976271  0.6661683164676800  0.1571749837101333   T   T   T
  0.6462169252052968  0.6690627198845887  0.1570601864687757   T   T   T
  0.8961313445083690  0.6669216309838228  0.1568681017982766   T   T   T
  0.1456881513839758  0.0003477109238911  0.1571069185189966   T   T   T
  0.8953711513329803  0.9976838677103829  0.1571780506729735   T   T   T
  0.3959691752384198  0.0009453891566483  0.1563413652153753   T   T   T
  0.1456809811625734  0.6664893698117381  0.1574112856018399   T   T   T
  0.3949329197193925  0.3341310010123086  0.1567243555922581   T   T   T
  0.8960806000247439  0.3338217445297568  0.1572187927415803   T   T   T
  0.6456647931713448  0.3328832381589336  0.1565540109935758   T   T   T
  0.1468204493422610  0.3340583623075722  0.1571145973705749   T   T   T
  0.6463992751555238  0.1672292726390834  0.2349607356745759   T   T   T
  0.6454065809839230  0.8334201583109498  0.2388996912881080   T   T   T
  0.3959773402146214  0.8366952050045854  0.2334724917459561   T   T   T
  0.8951464738343565  0.5026830518146952  0.2352632889066910   T   T   T
  0.1451505252359512  0.8329145334645135  0.2351284591750394   T   T   T
  0.6455997215074059  0.5011471248448628  0.2329292011855414   T   T   T
  0.3949897696282183  0.1655343256860620  0.2343716151615512   T   T   T
  0.8957861286288097  0.1643692935922634  0.2344801475866023   T   T   T
  0.3947761541664363  0.4998618593872062  0.2364819380633466   T   T   T
  0.1448460062488295  0.5016950552189686  0.2366674432937531   T   T   T
  0.1454553446115532  0.1673680779718109  0.2360032562339504   T   T   T
  0.8948980403833861  0.8282244977642317  0.2371549079059850   T   T   T
  0.6436843197463381  0.3431229928881032  0.3109405315466129   T   T   T
  0.8937643043198129  0.9979838321411717  0.3118067687411488   T   T   T
  0.1446368298117323  0.6717776502147539  0.3153349484015557   T   T   T
  0.3866922849301470  0.3311879325903958  0.3124716123834672   T   T   T
  0.6455884805332359  0.0061535310637464  0.3168231046859478   T   T   T
  0.6436892911445380  0.6558729077063089  0.3163760353576498   T   T   T
  0.3944870599358090  0.9975356871241463  0.3123445935068491   T   T   T
  0.8954630658816659  0.6601526652757062  0.3189852400571965   T   T   T
  0.3951526943430628  0.6749546910728759  0.3099252674891281   T   T   T
  0.8986296536627313  0.3304782881108023  0.3087298951032820   T   T   T
  0.1434343109489171  0.3336715969875854  0.3161080197075278   T   T   T
  0.1436567683930422  0.0000168410363210  0.3124515539091063   T   T   T
  0.6354773870449271  0.8371514236043381  0.3901280571103800   T   T   T
  0.1388859846372825  0.8384163175970606  0.3924895009163860   T   T   T
  0.3947718254029610  0.8384537034864670  0.3929570480448381   T   T   T
  0.4037409136684438  0.1525971966740843  0.3947254262319440   T   T   T
  0.1365289249579608  0.1631790688963524  0.3917668846847376   T   T   T
  0.8995579530311605  0.8376287773470329  0.3919946893353971   T   T   T
  0.8991626328291202  0.1606684329964220  0.3883178489957775   T   T   T
  0.6633584771133320  0.2089604422735717  0.4010650911421910   T   T   T
  0.3706489457154503  0.5342431281984338  0.3913217714622798   T   T   T
  0.8227499604944605  0.4316885391546452  0.3949817214488874   T   T   T
  0.6364517588375512  0.5576474613684959  0.4326345342252086   T   T   T
  0.0882411405824765  0.5042984170046024  0.3915613200841010   T   T   T
  0.5209799851975548  0.2573965603822364  0.3564155953388783   T   T   T
  0.6650836998931892  0.3876654346122512  0.4309825007932581   T   T   T
  0.5253188566250765  0.3593390971432577  0.4704648456236329   T   T   T
  0.4399361959216499  0.3456428408299579  0.4971754200577263   T   T   T
  0.8303022485068423  0.3491902518531000  0.5079100315666977   T   T   T
  0.9395606348454135  0.3344546671349916  0.4929866848820169   T   T   T
 
  0.00000000E+00  0.00000000E+00  0.00000000E+00
  0.00000000E+00  0.00000000E+00  0.00000000E+00
  0.00000000E+00  0.00000000E+00  0.00000000E+00
  0.00000000E+00  0.00000000E+00  0.00000000E+00
  0.00000000E+00  0.00000000E+00  0.00000000E+00
  0.00000000E+00  0.00000000E+00  0.00000000E+00
  0.00000000E+00  0.00000000E+00  0.00000000E+00
  0.00000000E+00  0.00000000E+00  0.00000000E+00
  0.00000000E+00  0.00000000E+00  0.00000000E+00
  0.00000000E+00  0.00000000E+00  0.00000000E+00
  0.00000000E+00  0.00000000E+00  0.00000000E+00
  0.00000000E+00  0.00000000E+00  0.00000000E+00
  0.00000000E+00  0.00000000E+00  0.00000000E+00
  0.00000000E+00  0.00000000E+00  0.00000000E+00
  0.00000000E+00  0.00000000E+00  0.00000000E+00
  0.00000000E+00  0.00000000E+00  0.00000000E+00
  0.00000000E+00  0.00000000E+00  0.00000000E+00
  0.00000000E+00  0.00000000E+00  0.00000000E+00
  0.00000000E+00  0.00000000E+00  0.00000000E+00
  0.00000000E+00  0.00000000E+00  0.00000000E+00
  0.00000000E+00  0.00000000E+00  0.00000000E+00
  0.00000000E+00  0.00000000E+00  0.00000000E+00
  0.00000000E+00  0.00000000E+00  0.00000000E+00
  0.00000000E+00  0.00000000E+00  0.00000000E+00
  0.00000000E+00  0.00000000E+00  0.00000000E+00
  0.00000000E+00  0.00000000E+00  0.00000000E+00
  0.00000000E+00  0.00000000E+00  0.00000000E+00
  0.00000000E+00  0.00000000E+00  0.00000000E+00
  0.00000000E+00  0.00000000E+00  0.00000000E+00
  0.00000000E+00  0.00000000E+00  0.00000000E+00
  0.00000000E+00  0.00000000E+00  0.00000000E+00
  0.00000000E+00  0.00000000E+00  0.00000000E+00
  0.00000000E+00  0.00000000E+00  0.00000000E+00
  0.00000000E+00  0.00000000E+00  0.00000000E+00
  0.00000000E+00  0.00000000E+00  0.00000000E+00
  0.00000000E+00  0.00000000E+00  0.00000000E+00
  0.00000000E+00  0.00000000E+00  0.00000000E+00
  0.00000000E+00  0.00000000E+00  0.00000000E+00
  0.00000000E+00  0.00000000E+00  0.00000000E+00
  0.00000000E+00  0.00000000E+00  0.00000000E+00
  0.00000000E+00  0.00000000E+00  0.00000000E+00
  0.00000000E+00  0.00000000E+00  0.00000000E+00
  0.00000000E+00  0.00000000E+00  0.00000000E+00
  0.00000000E+00  0.00000000E+00  0.00000000E+00
  0.00000000E+00  0.00000000E+00  0.00000000E+00
  0.00000000E+00  0.00000000E+00  0.00000000E+00
  0.00000000E+00  0.00000000E+00  0.00000000E+00
  0.00000000E+00  0.00000000E+00  0.00000000E+00
  0.00000000E+00  0.00000000E+00  0.00000000E+00
  0.00000000E+00  0.00000000E+00  0.00000000E+00
  0.00000000E+00  0.00000000E+00  0.00000000E+00
  0.00000000E+00  0.00000000E+00  0.00000000E+00
  0.00000000E+00  0.00000000E+00  0.00000000E+00
  0.00000000E+00  0.00000000E+00  0.00000000E+00
  0.00000000E+00  0.00000000E+00  0.00000000E+00
  0.00000000E+00  0.00000000E+00  0.00000000E+00
  0.00000000E+00  0.00000000E+00  0.00000000E+00
  0.00000000E+00  0.00000000E+00  0.00000000E+00
  0.00000000E+00  0.00000000E+00  0.00000000E+00
  0.00000000E+00  0.00000000E+00  0.00000000E+00
  0.00000000E+00  0.00000000E+00  0.00000000E+00
  0.00000000E+00  0.00000000E+00  0.00000000E+00
  0.00000000E+00  0.00000000E+00  0.00000000E+00
  0.00000000E+00  0.00000000E+00  0.00000000E+00
  0.00000000E+00  0.00000000E+00  0.00000000E+00
  0.00000000E+00  0.00000000E+00  0.00000000E+00
  0.00000000E+00  0.00000000E+00  0.00000000E+00
  0.00000000E+00  0.00000000E+00  0.00000000E+00
  0.00000000E+00  0.00000000E+00  0.00000000E+00
  0.00000000E+00  0.00000000E+00  0.00000000E+00
  0.00000000E+00  0.00000000E+00  0.00000000E+00
  0.00000000E+00  0.00000000E+00  0.00000000E+00
  0.00000000E+00  0.00000000E+00  0.00000000E+00
  0.00000000E+00  0.00000000E+00  0.00000000E+00
  0.00000000E+00  0.00000000E+00  0.00000000E+00
  0.00000000E+00  0.00000000E+00  0.00000000E+00
  0.00000000E+00  0.00000000E+00  0.00000000E+00
  0.00000000E+00  0.00000000E+00  0.00000000E+00
  0.00000000E+00  0.00000000E+00  0.00000000E+00
  0.00000000E+00  0.00000000E+00  0.00000000E+00
  0.00000000E+00  0.00000000E+00  0.00000000E+00
  0.00000000E+00  0.00000000E+00  0.00000000E+00
  0.00000000E+00  0.00000000E+00  0.00000000E+00
  0.00000000E+00  0.00000000E+00  0.00000000E+00
  0.00000000E+00  0.00000000E+00  0.00000000E+00
  0.00000000E+00  0.00000000E+00  0.00000000E+00
  0.00000000E+00  0.00000000E+00  0.00000000E+00
  0.00000000E+00  0.00000000E+00  0.00000000E+00
  0.00000000E+00  0.00000000E+00  0.00000000E+00
  0.00000000E+00  0.00000000E+00  0.00000000E+00
  0.00000000E+00  0.00000000E+00  0.00000000E+00
  0.00000000E+00  0.00000000E+00  0.00000000E+00
  0.00000000E+00  0.00000000E+00  0.00000000E+00
  0.00000000E+00  0.00000000E+00  0.00000000E+00
  0.00000000E+00  0.00000000E+00  0.00000000E+00
  0.00000000E+00  0.00000000E+00  0.00000000E+00
  0.00000000E+00  0.00000000E+00  0.00000000E+00
  0.00000000E+00  0.00000000E+00  0.00000000E+00
  0.00000000E+00  0.00000000E+00  0.00000000E+00
  0.00000000E+00  0.00000000E+00  0.00000000E+00
  0.00000000E+00  0.00000000E+00  0.00000000E+00
  0.00000000E+00  0.00000000E+00  0.00000000E+00
  0.00000000E+00  0.00000000E+00  0.00000000E+00
  0.00000000E+00  0.00000000E+00  0.00000000E+00
  0.00000000E+00  0.00000000E+00  0.00000000E+00
  0.00000000E+00  0.00000000E+00  0.00000000E+00
  0.00000000E+00  0.00000000E+00  0.00000000E+00
  0.00000000E+00  0.00000000E+00  0.00000000E+00
  0.00000000E+00  0.00000000E+00  0.00000000E+00
  0.00000000E+00  0.00000000E+00  0.00000000E+00
  0.00000000E+00  0.00000000E+00  0.00000000E+00
  0.00000000E+00  0.00000000E+00  0.00000000E+00
  0.00000000E+00  0.00000000E+00  0.00000000E+00
