CeO2-110-l3-p23:                        
   1.00000000000000     
    10.9800000000000004    0.0000000000000000    0.0000000000000000
     0.0000000000000000   11.6460486861424357    0.0000000000000000
     0.0000000000000000    0.0000000000000000   24.7050405717853714
    35    72     2
Selective dynamics
Direct
  0.7712027356029978  0.1666667660079995  0.0000000000000000   F   F   F
  0.7712027356029978  0.5000000993410012  0.0000000000000000   F   F   F
  0.2712027356029978  0.1666667660079995  0.0000000000000000   F   F   F
  0.7712027356029978  0.8333334326740029  0.0000000000000000   F   F   F
  0.2712027356029978  0.5000000993410012  0.0000000000000000   F   F   F
  0.2712027356029978  0.8333334326740029  0.0000000000000000   F   F   F
  0.5212027356029978  0.0000000993410012  0.0785672911050028   F   F   F
  0.5212027356029978  0.6666667660079995  0.0785672911050028   F   F   F
  0.0212027356029978  0.0000000993410012  0.0785672911050028   F   F   F
  0.5212027356029978  0.3333334326740029  0.0785672911050028   F   F   F
  0.0212027356029978  0.3333334326740029  0.0785672911050028   F   F   F
  0.0212027356029978  0.6666667660079995  0.0785672911050028   F   F   F
  0.7711085875741190  0.1673946587474617  0.1575911155449674   T   T   T
  0.7712722391372893  0.8328502612337516  0.1576012068517798   T   T   T
  0.2706010531894663  0.1665395101905958  0.1575540308786785   T   T   T
  0.7717804518283060  0.4998795827179876  0.1566453520819948   T   T   T
  0.2703954517971283  0.5000200496002378  0.1581747565189033   T   T   T
  0.2715006107096585  0.8337496020806370  0.1571653696554449   T   T   T
  0.0225501204221246  0.6654510772376057  0.2345249812971986   T   T   T
  0.5202335870117381  0.6676976275893907  0.2330501036767103   T   T   T
  0.0231846730856589  0.3347389554912894  0.2358439992647803   T   T   T
  0.0218108046647174  0.9989396542111635  0.2335707865266059   T   T   T
  0.5228097002574472  0.0018876989116166  0.2339704743306328   T   T   T
  0.5168776082674853  0.3332568220353593  0.2326162600242654   T   T   T
  0.7651542398573383  0.5007611382762818  0.3113915732498640   T   T   T
  0.7769840578322302  0.1679144754652100  0.3152824709477358   T   T   T
  0.2717870785997647  0.5020530213961436  0.3204992441293939   T   T   T
  0.2758599509782584  0.8339160078570416  0.3147353765189749   T   T   T
  0.2679047252303306  0.1654102746605233  0.3168307976970581   T   T   T
  0.7722429567956439  0.8322994582857035  0.3164472255424471   T   T   T
  0.0246625303063794  0.9994749262132245  0.3844275582933250   T   T   T
  0.5213491267612795  0.9879594682028312  0.3865043020244059   T   T   T
  0.0298037992752000  0.6819822595768983  0.3874300264887580   T   T   T
  0.5218443897478195  0.6650465449091030  0.3855016686106296   T   T   T
  0.0195629821766161  0.3225482159513078  0.3910052661827308   T   T   T
  0.6462027356029978  0.3333334326740029  0.0000000000000000   F   F   F
  0.1462027356029978  0.0000000993410012  0.0000000000000000   F   F   F
  0.6462027356029978  0.6666667660079995  0.0000000000000000   F   F   F
  0.8962027356029978  0.0000000993410012  0.0000000000000000   F   F   F
  0.8962027356029978  0.3333334326740029  0.0000000000000000   F   F   F
  0.1462027356029978  0.3333334326740029  0.0000000000000000   F   F   F
  0.3962027356029978  0.6666667660079995  0.0000000000000000   F   F   F
  0.3962027356029978  0.0000000993410012  0.0000000000000000   F   F   F
  0.6462027356029978  0.0000000993410012  0.0000000000000000   F   F   F
  0.3962027356029978  0.3333334326740029  0.0000000000000000   F   F   F
  0.8962027356029978  0.6666667660079995  0.0000000000000000   F   F   F
  0.1462027356029978  0.6666667660079995  0.0000000000000000   F   F   F
  0.3962027356029978  0.8333334326740029  0.0785672911050028   F   F   F
  0.6462027356029978  0.8333334326740029  0.0785672911050028   F   F   F
  0.3962027356029978  0.1666667660079995  0.0785672911050028   F   F   F
  0.1462027356029978  0.1666667660079995  0.0785672911050028   F   F   F
  0.8962027356029978  0.1666667660079995  0.0785672911050028   F   F   F
  0.8962027356029978  0.8333334326740029  0.0785672911050028   F   F   F
  0.6462027356029978  0.1666667660079995  0.0785672911050028   F   F   F
  0.1462027356029978  0.8333334326740029  0.0785672911050028   F   F   F
  0.3962027356029978  0.5000000993410012  0.0785672911050028   F   F   F
  0.1462027356029978  0.5000000993410012  0.0785672911050028   F   F   F
  0.8962027356029978  0.5000000993410012  0.0785672911050028   F   F   F
  0.6462027356029978  0.5000000993410012  0.0785672911050028   F   F   F
  0.6469974476832689  0.9996472540013315  0.1565080487494015   T   T   T
  0.3953366823189342  0.6658574924504066  0.1568003284618271   T   T   T
  0.6467756722730087  0.6684815433174904  0.1564459348364551   T   T   T
  0.8966990830543864  0.6667023231937534  0.1566217234878593   T   T   T
  0.1464754760635643  0.0002101775759229  0.1566681187651042   T   T   T
  0.8962380462067259  0.9992448299158809  0.1578211120478130   T   T   T
  0.3963214827050976  0.0014289540880981  0.1567344152957091   T   T   T
  0.1461918765184222  0.6656637577749294  0.1573578319684685   T   T   T
  0.3943663201117005  0.3332704059851892  0.1562556768025019   T   T   T
  0.8961931708882958  0.3333803836202591  0.1572930155078893   T   T   T
  0.6456311332483793  0.3328368394013310  0.1565672541924812   T   T   T
  0.1460432854801539  0.3342862630798038  0.1577565605263516   T   T   T
  0.6471393161454841  0.1646984605014268  0.2345575328668374   T   T   T
  0.6472453082894916  0.8366126537431882  0.2360654416762955   T   T   T
  0.3973472575764418  0.8360024196022167  0.2334771853751718   T   T   T
  0.8954698232696288  0.5018174832894076  0.2345768023185428   T   T   T
  0.1466979274199147  0.8328555089803444  0.2344982499771788   T   T   T
  0.6454716068984112  0.5015595184416384  0.2329953005648946   T   T   T
  0.3947923403423985  0.1668561897900673  0.2354409185766428   T   T   T
  0.8970142176273583  0.1690856554356870  0.2364487887609741   T   T   T
  0.3942654035937210  0.4975385503641050  0.2363061043335364   T   T   T
  0.1453910345699398  0.5010871624042252  0.2374216802453475   T   T   T
  0.1454372007671552  0.1664965280810264  0.2357220898215289   T   T   T
  0.8967403365308826  0.8268879314534416  0.2366745051203836   T   T   T
  0.6413627655077150  0.3393830332644541  0.3073931343025009   T   T   T
  0.8976839258318918  0.9963463936166193  0.3104332915760324   T   T   T
  0.1493457476047269  0.6722534711966262  0.3140645867568495   T   T   T
  0.3927218406234303  0.3303155139941794  0.3165516540168483   T   T   T
  0.6491442684935365  0.0032066453882607  0.3162823818441893   T   T   T
  0.6457526672941398  0.6663796919836571  0.3105483237954871   T   T   T
  0.3988686379484747  0.9974355776413759  0.3127585878981947   T   T   T
  0.8989620708575359  0.6572293287310274  0.3190433600988314   T   T   T
  0.3987913707006925  0.6713322080534070  0.3092734064436584   T   T   T
  0.8996390806914789  0.3404095027850644  0.3146451174549796   T   T   T
  0.1489713480874855  0.3311060783214614  0.3152421889482397   T   T   T
  0.1477476171950656  0.9983407554347252  0.3115394299649097   T   T   T
  0.6427578822329281  0.8315601056220956  0.3904455773831259   T   T   T
  0.1456805545917277  0.8365308043274524  0.3920803342098935   T   T   T
  0.4039368614088872  0.8333327431571220  0.3909590649244734   T   T   T
  0.4096287653856905  0.1520177998978980  0.3947098032300147   T   T   T
  0.1458167110528450  0.1578890489177525  0.3923094276833226   T   T   T
  0.9054381416468615  0.8356409042547526  0.3908165433065633   T   T   T
  0.9071971836603083  0.1537343251733176  0.3872378799913818   T   T   T
  0.6656186698901365  0.1836733989875015  0.4004845074742960   T   T   T
  0.3862138069926644  0.5360312949342614  0.3921244353013975   T   T   T
  0.8735140693187518  0.3959241151243731  0.4361450937376929   T   T   T
  0.6842074469545096  0.5278162204568275  0.3963741275797616   T   T   T
  0.1066698437622406  0.5073283450752371  0.3892167695651594   T   T   T
  0.5270213079264465  0.2574267545022835  0.3594991304096595   T   T   T
  0.7055558012451826  0.3578975167933436  0.4110046476221001   T   T   T
