CeO2-110-l3-p23:                        
   1.00000000000000     
    10.9800000000000004    0.0000000000000000    0.0000000000000000
     0.0000000000000000   11.6460486861424357    0.0000000000000000
     0.0000000000000000    0.0000000000000000   24.7050405717853714
    36    71     1     2
Selective dynamics
Direct
  0.7712027356029978  0.1666667660079995  0.0000000000000000   F   F   F
  0.7712027356029978  0.5000000993410012  0.0000000000000000   F   F   F
  0.2712027356029978  0.1666667660079995  0.0000000000000000   F   F   F
  0.7712027356029978  0.8333334326740029  0.0000000000000000   F   F   F
  0.2712027356029978  0.5000000993410012  0.0000000000000000   F   F   F
  0.2712027356029978  0.8333334326740029  0.0000000000000000   F   F   F
  0.5212027356029978  0.0000000993410012  0.0785672911050028   F   F   F
  0.5212027356029978  0.6666667660079995  0.0785672911050028   F   F   F
  0.0212027356029978  0.0000000993410012  0.0785672911050028   F   F   F
  0.5212027356029978  0.3333334326740029  0.0785672911050028   F   F   F
  0.0212027356029978  0.3333334326740029  0.0785672911050028   F   F   F
  0.0212027356029978  0.6666667660079995  0.0785672911050028   F   F   F
  0.7710026172588337  0.1674327458791952  0.1574319401531177   T   T   T
  0.7709072245897971  0.8345420368605188  0.1566936719279013   T   T   T
  0.2712814132767382  0.1672137969843055  0.1581561009711249   T   T   T
  0.7707978404993125  0.4986283258957784  0.1572742756302116   T   T   T
  0.2714721338364469  0.4985255613704432  0.1566459581029494   T   T   T
  0.2712570681871865  0.8328881304243951  0.1567635660894235   T   T   T
  0.0188446584416831  0.6668554109201484  0.2323719465216794   T   T   T
  0.5229300266296788  0.6660855632927878  0.2334436524541638   T   T   T
  0.0200710472834533  0.3317287879548434  0.2354114396256020   T   T   T
  0.0220672987362646  0.0007425709880858  0.2335951718069150   T   T   T
  0.5212062314713768  0.0003308590791145  0.2336672781377742   T   T   T
  0.5216961553883391  0.3321679870851583  0.2363285422860815   T   T   T
  0.7711546558906557  0.4982116132623003  0.3150108067390474   T   T   T
  0.7709167496949996  0.1676763134793139  0.3170141865942546   T   T   T
  0.2679242056180013  0.5009175188445507  0.3108658236908158   T   T   T
  0.2720600970996359  0.8270041830344043  0.3125119899386632   T   T   T
  0.2720614285490606  0.1650384846279734  0.3191559910294720   T   T   T
  0.7724222807737194  0.8380980391667830  0.3135121941731463   T   T   T
  0.0184777386264507  0.0054214005822239  0.3856117782790470   T   T   T
  0.5251182785016597  0.0038641734687694  0.3858380430683681   T   T   T
  0.0072920348955180  0.6679158896307388  0.3846040993675017   T   T   T
  0.5411000307720563  0.6705403231580840  0.3869950437378238   T   T   T
  0.0185972890700293  0.3307480714433613  0.3903547345494351   T   T   T
  0.5241019244725714  0.3284349905146850  0.3927738492897495   T   T   T
  0.6462027356029978  0.3333334326740029  0.0000000000000000   F   F   F
  0.1462027356029978  0.0000000993410012  0.0000000000000000   F   F   F
  0.6462027356029978  0.6666667660079995  0.0000000000000000   F   F   F
  0.8962027356029978  0.0000000993410012  0.0000000000000000   F   F   F
  0.8962027356029978  0.3333334326740029  0.0000000000000000   F   F   F
  0.1462027356029978  0.3333334326740029  0.0000000000000000   F   F   F
  0.3962027356029978  0.6666667660079995  0.0000000000000000   F   F   F
  0.3962027356029978  0.0000000993410012  0.0000000000000000   F   F   F
  0.6462027356029978  0.0000000993410012  0.0000000000000000   F   F   F
  0.3962027356029978  0.3333334326740029  0.0000000000000000   F   F   F
  0.8962027356029978  0.6666667660079995  0.0000000000000000   F   F   F
  0.1462027356029978  0.6666667660079995  0.0000000000000000   F   F   F
  0.3962027356029978  0.8333334326740029  0.0785672911050028   F   F   F
  0.6462027356029978  0.8333334326740029  0.0785672911050028   F   F   F
  0.3962027356029978  0.1666667660079995  0.0785672911050028   F   F   F
  0.1462027356029978  0.1666667660079995  0.0785672911050028   F   F   F
  0.8962027356029978  0.1666667660079995  0.0785672911050028   F   F   F
  0.8962027356029978  0.8333334326740029  0.0785672911050028   F   F   F
  0.6462027356029978  0.1666667660079995  0.0785672911050028   F   F   F
  0.1462027356029978  0.8333334326740029  0.0785672911050028   F   F   F
  0.3962027356029978  0.5000000993410012  0.0785672911050028   F   F   F
  0.1462027356029978  0.5000000993410012  0.0785672911050028   F   F   F
  0.8962027356029978  0.5000000993410012  0.0785672911050028   F   F   F
  0.6462027356029978  0.5000000993410012  0.0785672911050028   F   F   F
  0.6459684451737614  0.0005810157166390  0.1561641374870211   T   T   T
  0.3958449158774895  0.6659126495843734  0.1564186212013815   T   T   T
  0.6466648761862192  0.6662148094045993  0.1566873563610768   T   T   T
  0.8949247414705056  0.6666868221275164  0.1563004257763747   T   T   T
  0.1469737087809829  0.0016943542274522  0.1568983174769591   T   T   T
  0.8964420230102724  0.0005714453103774  0.1564665141183430   T   T   T
  0.3956968759516716  0.0009231719703625  0.1573806575762312   T   T   T
  0.1464114727681665  0.6659639266906818  0.1563079032459459   T   T   T
  0.3960950284570570  0.3311948658044193  0.1575236895362702   T   T   T
  0.8962172947703417  0.3334354160466527  0.1568032620644894   T   T   T
  0.6458208802508163  0.3338606839946563  0.1572084333875194   T   T   T
  0.1463194089016791  0.3310367345139601  0.1573581734970930   T   T   T
  0.6450869432879150  0.1661834838923455  0.2342629214181898   T   T   T
  0.6458228909929967  0.8361248901507810  0.2336331058301460   T   T   T
  0.3954569805626074  0.8310928180434511  0.2347568950725225   T   T   T
  0.8968737600838333  0.4984267361389632  0.2346204268878297   T   T   T
  0.1475743122463032  0.8338812840955362  0.2338015608529929   T   T   T
  0.6446884231351755  0.4989839214890480  0.2355307741521652   T   T   T
  0.3960084494749609  0.1662557227458003  0.2387100456390568   T   T   T
  0.8968131687519809  0.1673114221905010  0.2344279271110802   T   T   T
  0.3941084342376505  0.4981670227687810  0.2344577441344984   T   T   T
  0.1465350792555921  0.4976401381404266  0.2343078427501049   T   T   T
  0.1465931127621978  0.1658541574788534  0.2383430920552052   T   T   T
  0.8970415754131045  0.8358659193979798  0.2339882330973459   T   T   T
  0.6480907842566354  0.3285832471472211  0.3130680006944656   T   T   T
  0.8976487933044636  0.0035427581365275  0.3112649636431833   T   T   T
  0.1400368154098139  0.6659051076074949  0.3080794971215303   T   T   T
  0.3935962274848414  0.3418381970261050  0.3174474557200332   T   T   T
  0.6455608926314262  0.0021307910334305  0.3113156277716241   T   T   T
  0.6511489740426141  0.6735611815228028  0.3104507571019400   T   T   T
  0.3972342347886362  0.9882517401721433  0.3149045397694137   T   T   T
  0.8920596728259693  0.6698890555936790  0.3098866198147584   T   T   T
  0.4039523976703650  0.6612520628011076  0.3114781400774274   T   T   T
  0.8956320245539552  0.3309237597197704  0.3135308528266504   T   T   T
  0.1473849985705906  0.3400552684919390  0.3163031049616173   T   T   T
  0.1463023396332151  0.9889010595461689  0.3151015700831384   T   T   T
  0.6412890515369902  0.8404466609132474  0.3898714433197762   T   T   T
  0.1535940427929143  0.8074565237497352  0.3993048089720932   T   T   T
  0.3932518678493255  0.8064277624844089  0.4013232142021101   T   T   T
  0.4009607368273396  0.1536709496466099  0.3906377366274901   T   T   T
  0.1432451359854814  0.1555660150065420  0.3909250150893158   T   T   T
  0.9060488656626572  0.8408394026552456  0.3885083068886132   T   T   T
  0.9010828554057697  0.1579011989670987  0.3927773538812148   T   T   T
  0.6438394952554317  0.1545003189866181  0.3935414525699453   T   T   T
  0.9019221512051894  0.5068576153604142  0.3894683500362262   T   T   T
  0.6408568871073954  0.5072947196546708  0.3852821131937707   T   T   T
  0.1529881958646355  0.5343826053026992  0.4012139219778145   T   T   T
  0.2697556990207063  0.6720730472436118  0.4109511945730291   T   T   T
  0.3859621912168356  0.5343202061345638  0.4044068112422964   T   T   T
  0.4334693841007280  0.4805424994278655  0.4534075769901618   T   T   T
