CeO2-110-l3-p23:                        
   1.00000000000000     
    10.9800000000000004    0.0000000000000000    0.0000000000000000
     0.0000000000000000   11.6460486861424357    0.0000000000000000
     0.0000000000000000    0.0000000000000000   24.7050405717853714
    35    70     1
Selective dynamics
Direct
  0.7712027356029978  0.1666667660079995  0.0000000000000000   F   F   F
  0.7712027356029978  0.5000000993410012  0.0000000000000000   F   F   F
  0.2712027356029978  0.1666667660079995  0.0000000000000000   F   F   F
  0.7712027356029978  0.8333334326740029  0.0000000000000000   F   F   F
  0.2712027356029978  0.5000000993410012  0.0000000000000000   F   F   F
  0.2712027356029978  0.8333334326740029  0.0000000000000000   F   F   F
  0.5212027356029978  0.0000000993410012  0.0785672911050028   F   F   F
  0.5212027356029978  0.6666667660079995  0.0785672911050028   F   F   F
  0.0212027356029978  0.0000000993410012  0.0785672911050028   F   F   F
  0.5212027356029978  0.3333334326740029  0.0785672911050028   F   F   F
  0.0212027356029978  0.3333334326740029  0.0785672911050028   F   F   F
  0.0212027356029978  0.6666667660079995  0.0785672911050028   F   F   F
  0.7705422230049125  0.1669630447039997  0.1574752166519720   T   T   T
  0.7703378603173244  0.8333924078162196  0.1574014584939070   T   T   T
  0.2720050973853883  0.1666813340604396  0.1576951532562274   T   T   T
  0.7699397089197454  0.4999956482440584  0.1567163104121155   T   T   T
  0.2720764357694913  0.4995396741030468  0.1564238407726669   T   T   T
  0.2720388651355181  0.8325161819537602  0.1576054079425135   T   T   T
  0.0207050235659091  0.6688051768376192  0.2323340638223561   T   T   T
  0.5222414024843837  0.6647925223988984  0.2357557085507748   T   T   T
  0.0206936225839569  0.3304185290433114  0.2325862608394881   T   T   T
  0.0219203005142562  0.0002076168465417  0.2330646329511423   T   T   T
  0.5224909076634631  0.0004759810583417  0.2347390012735840   T   T   T
  0.5218230704859694  0.3337720072636419  0.2357005734529173   T   T   T
  0.7801083383614968  0.5001327298389473  0.3123965729669128   T   T   T
  0.7730308317613394  0.1670035418809365  0.3172143944011584   T   T   T
  0.2633379580840768  0.4983831865094067  0.3107612638685290   T   T   T
  0.2717584884713926  0.8316198318861659  0.3164237242406259   T   T   T
  0.2721732713484418  0.1653306784270653  0.3171157468037635   T   T   T
  0.7745981386828191  0.8338382608856777  0.3165411796432613   T   T   T
  0.0225000833187432  0.0000950967273409  0.3849047567473793   T   T   T
  0.5232817545088326  0.9982600052473914  0.3851125031139697   T   T   T
  0.0252268461613144  0.6670765505302320  0.3842965950868329   T   T   T
  0.5248998300141551  0.6901801674397159  0.3917139811222392   T   T   T
  0.0238282551214093  0.3315284947556133  0.3848363657810567   T   T   T
  0.6462027356029978  0.3333334326740029  0.0000000000000000   F   F   F
  0.1462027356029978  0.0000000993410012  0.0000000000000000   F   F   F
  0.6462027356029978  0.6666667660079995  0.0000000000000000   F   F   F
  0.8962027356029978  0.0000000993410012  0.0000000000000000   F   F   F
  0.8962027356029978  0.3333334326740029  0.0000000000000000   F   F   F
  0.1462027356029978  0.3333334326740029  0.0000000000000000   F   F   F
  0.3962027356029978  0.6666667660079995  0.0000000000000000   F   F   F
  0.3962027356029978  0.0000000993410012  0.0000000000000000   F   F   F
  0.6462027356029978  0.0000000993410012  0.0000000000000000   F   F   F
  0.3962027356029978  0.3333334326740029  0.0000000000000000   F   F   F
  0.8962027356029978  0.6666667660079995  0.0000000000000000   F   F   F
  0.1462027356029978  0.6666667660079995  0.0000000000000000   F   F   F
  0.3962027356029978  0.8333334326740029  0.0785672911050028   F   F   F
  0.6462027356029978  0.8333334326740029  0.0785672911050028   F   F   F
  0.3962027356029978  0.1666667660079995  0.0785672911050028   F   F   F
  0.1462027356029978  0.1666667660079995  0.0785672911050028   F   F   F
  0.8962027356029978  0.1666667660079995  0.0785672911050028   F   F   F
  0.8962027356029978  0.8333334326740029  0.0785672911050028   F   F   F
  0.6462027356029978  0.1666667660079995  0.0785672911050028   F   F   F
  0.1462027356029978  0.8333334326740029  0.0785672911050028   F   F   F
  0.3962027356029978  0.5000000993410012  0.0785672911050028   F   F   F
  0.1462027356029978  0.5000000993410012  0.0785672911050028   F   F   F
  0.8962027356029978  0.5000000993410012  0.0785672911050028   F   F   F
  0.6462027356029978  0.5000000993410012  0.0785672911050028   F   F   F
  0.6460317293191604 -0.0000705929897240  0.1575265184042307   T   T   T
  0.3965876211677824  0.6659380523680826  0.1571291345113424   T   T   T
  0.6456023470237251  0.6674279114426060  0.1569335214344983   T   T   T
  0.8952415512486289  0.6681605681141276  0.1562278994534611   T   T   T
  0.1473793594348851  0.9998056436641166  0.1564251641850294   T   T   T
  0.8960776831182616  0.0001361094772283  0.1564227094534593   T   T   T
  0.3966460155240006  0.9988203015821037  0.1582132945905803   T   T   T
  0.1469317109065187  0.6668268526972838  0.1564492558609987   T   T   T
  0.3964179494560435  0.3336595608556299  0.1571874426819956   T   T   T
  0.8954083591135634  0.3320709508001377  0.1561771974200290   T   T   T
  0.6457552721079201  0.3327101109073240  0.1569876738446365   T   T   T
  0.1468962534792008  0.3323555175097833  0.1564577133101640   T   T   T
  0.6466546589199014  0.1693401750512738  0.2359888515497724   T   T   T
  0.6461787323811147  0.8297252719146966  0.2361432430180281   T   T   T
  0.3965807573649185  0.8261343340079672  0.2374200373359663   T   T   T
  0.8992675088358809  0.4997484989500664  0.2324496811047175   T   T   T
  0.1465370008637124  0.8344835236035711  0.2345887356593660   T   T   T
  0.6428351861581090  0.5005182190462042  0.2331020972680742   T   T   T
  0.3959228951089472  0.1701761351340401  0.2361727592741011   T   T   T
  0.8962190747172788  0.1656487674488124  0.2346527553388388   T   T   T
  0.3940490149311703  0.5001068322343721  0.2352309398514887   T   T   T
  0.1455336797589012  0.4988438645549796  0.2340105511902383   T   T   T
  0.1463378212565913  0.1648996731134965  0.2349068218316082   T   T   T
  0.8962773265427973  0.8351727630635337  0.2345569618732236   T   T   T
  0.6473823681057204  0.3401998095074771  0.3182121977766353   T   T   T
  0.8988581692651347  0.0006764687580106  0.3131207337085252   T   T   T
  0.1463070549925952  0.6666934733210060  0.3103283772828163   T   T   T
  0.3933919806815575  0.3441590669237653  0.3195449829292616   T   T   T
  0.6493455726160136  0.9978273503310987  0.3111077889265207   T   T   T
  0.6467832236134456  0.6663081006062371  0.3185762968706973   T   T   T
  0.3968663359201173  0.9972463154360679  0.3107648268462735   T   T   T
  0.9033736605196409  0.6720200069541272  0.3119796309422218   T   T   T
  0.3940441166400133  0.6547030049186958  0.3210639672488808   T   T   T
  0.9030072588509490  0.3287094550059755  0.3126955308307313   T   T   T
  0.1451787719782029  0.3312046158288906  0.3115210259481236   T   T   T
  0.1475948164972491  0.9986661217362499  0.3134803679326620   T   T   T
  0.6479345106060814  0.8434564482075355  0.3939657944477712   T   T   T
  0.1432992266511819  0.8290879823630284  0.3904371273089520   T   T   T
  0.4009974029560385  0.8415626266465889  0.3923385988169543   T   T   T
  0.3944902481163813  0.1512581591203113  0.3946139739273755   T   T   T
  0.1401925138411292  0.1671622267423692  0.3906183009656307   T   T   T
  0.9064484017991455  0.8343078482815268  0.3911076201437564   T   T   T
  0.9053272105362266  0.1661359534083878  0.3915242504337844   T   T   T
  0.6485120587175989  0.1540461659622114  0.3939347344348152   T   T   T
  0.9100214499574761  0.5019491043853228  0.3943934840123249   T   T   T
  0.1557355124960574  0.5007554137033736  0.3890625196837522   T   T   T
  0.5205323292674094  0.2500220844987923  0.3582922703765064   T   T   T
