CeO2-110-l3-p23:                        
   1.00000000000000     
    10.9800000000000004    0.0000000000000000    0.0000000000000000
     0.0000000000000000   11.6460486861424357    0.0000000000000000
     0.0000000000000000    0.0000000000000000   24.7050405717853714
    36    71     1
Selective dynamics
Direct
  0.7712027356029978  0.1666667660079995  0.0000000000000000   F   F   F
  0.7712027356029978  0.5000000993410012  0.0000000000000000   F   F   F
  0.2712027356029978  0.1666667660079995  0.0000000000000000   F   F   F
  0.7712027356029978  0.8333334326740029  0.0000000000000000   F   F   F
  0.2712027356029978  0.5000000993410012  0.0000000000000000   F   F   F
  0.2712027356029978  0.8333334326740029  0.0000000000000000   F   F   F
  0.5212027356029978  0.0000000993410012  0.0785672911050028   F   F   F
  0.5212027356029978  0.6666667660079995  0.0785672911050028   F   F   F
  0.0212027356029978  0.0000000993410012  0.0785672911050028   F   F   F
  0.5212027356029978  0.3333334326740029  0.0785672911050028   F   F   F
  0.0212027356029978  0.3333334326740029  0.0785672911050028   F   F   F
  0.0212027356029978  0.6666667660079995  0.0785672911050028   F   F   F
  0.7705771558764513  0.1673047841002436  0.1576387778826532   T   T   T
  0.7707550322027843  0.8343734238286902  0.1569346809670802   T   T   T
  0.2710439205027910  0.1676920285751476  0.1583110582690782   T   T   T
  0.7705604450751589  0.4986504236673336  0.1576860227696569   T   T   T
  0.2712028783046142  0.4986485793710170  0.1564857252852521   T   T   T
  0.2714114941310237  0.8329057868810870  0.1575544201899890   T   T   T
  0.0185280172704596  0.6672248423533034  0.2323520788188849   T   T   T
  0.5221582166768084  0.6662951909781667  0.2334669751876609   T   T   T
  0.0196591032347717  0.3322505586422064  0.2352547804000129   T   T   T
  0.0227981516091006  0.0008572274808234  0.2332070832357609   T   T   T
  0.5206452517486975 -0.0001561221330361  0.2343035170050194   T   T   T
  0.5214522737484251  0.3328683364399584  0.2364718619993283   T   T   T
  0.7720756467366063  0.4992323376040372  0.3165755070811456   T   T   T
  0.7735259511239058  0.1651630025937497  0.3168324255261140   T   T   T
  0.2664665736969334  0.5022581185517081  0.3109111427152763   T   T   T
  0.2685284964797766  0.8299128085395401  0.3155202406819638   T   T   T
  0.2702150230404000  0.1660833524118570  0.3193094967845727   T   T   T
  0.7727560313738352  0.8359753223121407  0.3140591010189780   T   T   T
  0.0204199252062947  0.0010304569496846  0.3845319314130276   T   T   T
  0.5226096251839562  0.0003885039636700  0.3860113234905062   T   T   T
  0.0151984841521399  0.6736181519224385  0.3840924673012032   T   T   T
  0.5333861184079235  0.6755188386520949  0.3857210854339708   T   T   T
  0.0203917859612422  0.3289745416319852  0.3897559882930454   T   T   T
  0.5301202887075299  0.3173893686517504  0.3913796600436787   T   T   T
  0.6462027356029978  0.3333334326740029  0.0000000000000000   F   F   F
  0.1462027356029978  0.0000000993410012  0.0000000000000000   F   F   F
  0.6462027356029978  0.6666667660079995  0.0000000000000000   F   F   F
  0.8962027356029978  0.0000000993410012  0.0000000000000000   F   F   F
  0.8962027356029978  0.3333334326740029  0.0000000000000000   F   F   F
  0.1462027356029978  0.3333334326740029  0.0000000000000000   F   F   F
  0.3962027356029978  0.6666667660079995  0.0000000000000000   F   F   F
  0.3962027356029978  0.0000000993410012  0.0000000000000000   F   F   F
  0.6462027356029978  0.0000000993410012  0.0000000000000000   F   F   F
  0.3962027356029978  0.3333334326740029  0.0000000000000000   F   F   F
  0.8962027356029978  0.6666667660079995  0.0000000000000000   F   F   F
  0.1462027356029978  0.6666667660079995  0.0000000000000000   F   F   F
  0.3962027356029978  0.8333334326740029  0.0785672911050028   F   F   F
  0.6462027356029978  0.8333334326740029  0.0785672911050028   F   F   F
  0.3962027356029978  0.1666667660079995  0.0785672911050028   F   F   F
  0.1462027356029978  0.1666667660079995  0.0785672911050028   F   F   F
  0.8962027356029978  0.1666667660079995  0.0785672911050028   F   F   F
  0.8962027356029978  0.8333334326740029  0.0785672911050028   F   F   F
  0.6462027356029978  0.1666667660079995  0.0785672911050028   F   F   F
  0.1462027356029978  0.8333334326740029  0.0785672911050028   F   F   F
  0.3962027356029978  0.5000000993410012  0.0785672911050028   F   F   F
  0.1462027356029978  0.5000000993410012  0.0785672911050028   F   F   F
  0.8962027356029978  0.5000000993410012  0.0785672911050028   F   F   F
  0.6462027356029978  0.5000000993410012  0.0785672911050028   F   F   F
  0.6458823030862600  0.0004713961083530  0.1566947580140682   T   T   T
  0.3958089408398965  0.6658502379812108  0.1565907809064543   T   T   T
  0.6464054427217385  0.6655712288914705  0.1568864529269797   T   T   T
  0.8947335870153988  0.6658740811894224  0.1562978232337679   T   T   T
  0.1472352685299974  0.0008947583035418  0.1568624930737146   T   T   T
  0.8959684797960721  0.0007552785794500  0.1563766569218965   T   T   T
  0.3958994834189164  0.0018009115603959  0.1579114849638024   T   T   T
  0.1463319175841711  0.6662440358454453  0.1563222643094267   T   T   T
  0.3963357444271087  0.3310791290069278  0.1575782556914280   T   T   T
  0.8956750816800908  0.3337803892522958  0.1570684632423192   T   T   T
  0.6453611138286887  0.3343036605988297  0.1575157885394477   T   T   T
  0.1461151898030852  0.3324933628157790  0.1570038038322292   T   T   T
  0.6451483699371685  0.1674955008867174  0.2348168997022179   T   T   T
  0.6452988598969969  0.8341726063490394  0.2342658992703622   T   T   T
  0.3952487236167589  0.8317990299800001  0.2349666872546334   T   T   T
  0.8943442365770219  0.4991214632741145  0.2358624181998000   T   T   T
  0.1461970833668484  0.8328777903663130  0.2346236648751179   T   T   T
  0.6449880256070797  0.4982910955903290  0.2368830256161941   T   T   T
  0.3962021146889781  0.1686255899917748  0.2397465207404600   T   T   T
  0.8966495335510239  0.1667826464036705  0.2349441376423738   T   T   T
  0.3940949096337998  0.4971655389957806  0.2342943159290662   T   T   T
  0.1452194544010396  0.4991370338597374  0.2342180288945556   T   T   T
  0.1461657806580043  0.1684714300344045  0.2362920114134128   T   T   T
  0.8963324799674247  0.8346744174820353  0.2335344913510539   T   T   T
  0.6496764566299023  0.3294925979928002  0.3150292989025197   T   T   T
  0.8977028663464309 -0.0007460344697228  0.3110998661041754   T   T   T
  0.1400442465164808  0.6656360497285954  0.3095458853533715   T   T   T
  0.3944880265653859  0.3451118165015450  0.3205749872610738   T   T   T
  0.6456620291293504  0.0010466969319234  0.3112942811272550   T   T   T
  0.6531583127335374  0.6690426548923014  0.3120676736945375   T   T   T
  0.3970394322440861  0.9894274354304278  0.3149659695517342   T   T   T
  0.8948530931067563  0.6692775741961696  0.3103906222317522   T   T   T
  0.4051103420166779  0.6619948872535755  0.3109606378797539   T   T   T
  0.8943844158981215  0.3326614091725634  0.3136589638334696   T   T   T
  0.1460117467838259  0.3387688846649579  0.3148903440540229   T   T   T
  0.1476770837956550  0.9989244239872224  0.3113889022674661   T   T   T
  0.6377158801724797  0.8398874407268094  0.3895986280011302   T   T   T
  0.1338993497233639  0.8379359743552537  0.3890049443565706   T   T   T
  0.3890044051025812  0.8134908831868199  0.4013721748073263   T   T   T
  0.4016113942424706  0.1518973032666222  0.3920731471026616   T   T   T
  0.1447957096408638  0.1576075215031530  0.3912927214801534   T   T   T
  0.8964115172860786  0.8322313683092050  0.3898670055442832   T   T   T
  0.9013819170406941  0.1580101567933482  0.3912528210409311   T   T   T
  0.6458106886412921  0.1519867982062436  0.3936109677848960   T   T   T
  0.9054158164162834  0.5107572468534357  0.3896305297467554   T   T   T
  0.6156952211625308  0.5063975121996388  0.3924500495136333   T   T   T
  0.1745554757150118  0.5246658241041517  0.4001761648007697   T   T   T
  0.2876753173465826  0.6609283603728746  0.4127558315714584   T   T   T
