CeO2-110-l3-p23:                        
   1.00000000000000     
    10.9800000000000004    0.0000000000000000    0.0000000000000000
     0.0000000000000000   11.6460486861424357    0.0000000000000000
     0.0000000000000000    0.0000000000000000   24.7050405717853714
    35    71     2     2     1     1
Selective dynamics
Direct
  0.7712027356029978  0.1666667660079995  0.0000000000000000   F   F   F
  0.7712027356029978  0.5000000993410012  0.0000000000000000   F   F   F
  0.2712027356029978  0.1666667660079995  0.0000000000000000   F   F   F
  0.7712027356029978  0.8333334326740029  0.0000000000000000   F   F   F
  0.2712027356029978  0.5000000993410012  0.0000000000000000   F   F   F
  0.2712027356029978  0.8333334326740029  0.0000000000000000   F   F   F
  0.5212027356029978  0.0000000993410012  0.0785672911050028   F   F   F
  0.5212027356029978  0.6666667660079995  0.0785672911050028   F   F   F
  0.0212027356029978  0.0000000993410012  0.0785672911050028   F   F   F
  0.5212027356029978  0.3333334326740029  0.0785672911050028   F   F   F
  0.0212027356029978  0.3333334326740029  0.0785672911050028   F   F   F
  0.0212027356029978  0.6666667660079995  0.0785672911050028   F   F   F
  0.7717605209550757  0.1663236202275983  0.1574016890858760   T   T   T
  0.7712729149333030  0.8321774346139035  0.1579290339352919   T   T   T
  0.2722572179138045  0.1654985458763293  0.1574565046610555   T   T   T
  0.7712861591670439  0.5007406403561487  0.1569170746232888   T   T   T
  0.2722973637885820  0.5007891056397562  0.1579167282911929   T   T   T
  0.2727036651198873  0.8325869021508143  0.1576492280749587   T   T   T
  0.0239750468914148  0.6664051719636174  0.2343963449395570   T   T   T
  0.5210352158685080  0.6657736425412447  0.2366300066052234   T   T   T
  0.0250229155115708  0.3317066288336606  0.2333073202452836   T   T   T
  0.0236145684609343  0.9980093723585725  0.2334962802912490   T   T   T
  0.5231818769350949  0.0011774303426456  0.2349000443598839   T   T   T
  0.5192521462560650  0.3336085317685707  0.2334012461213173   T   T   T
  0.7750261213729891  0.4981825640948904  0.3116005165883348   T   T   T
  0.7759636393384914  0.1681006796685465  0.3142733459798089   T   T   T
  0.2666770339058765  0.4994329114218667  0.3183160039883622   T   T   T
  0.2780343152983304  0.8323155593280191  0.3171363926399509   T   T   T
  0.2710650384674785  0.1650838854043637  0.3168465847201727   T   T   T
  0.7743242296303248  0.8341362490149302  0.3170755649085283   T   T   T
  0.0265532454345964  0.0016127541343064  0.3850905523452335   T   T   T
  0.5212920317025360  0.9960941830530148  0.3876806974515527   T   T   T
  0.0284889222949769  0.6824490757253632  0.3878139886838780   T   T   T
  0.5326366335329004  0.6812758561843459  0.3930627864500779   T   T   T
  0.0142875926214523  0.3243955638253000  0.3860756360871177   T   T   T
  0.6462027356029978  0.3333334326740029  0.0000000000000000   F   F   F
  0.1462027356029978  0.0000000993410012  0.0000000000000000   F   F   F
  0.6462027356029978  0.6666667660079995  0.0000000000000000   F   F   F
  0.8962027356029978  0.0000000993410012  0.0000000000000000   F   F   F
  0.8962027356029978  0.3333334326740029  0.0000000000000000   F   F   F
  0.1462027356029978  0.3333334326740029  0.0000000000000000   F   F   F
  0.3962027356029978  0.6666667660079995  0.0000000000000000   F   F   F
  0.3962027356029978  0.0000000993410012  0.0000000000000000   F   F   F
  0.6462027356029978  0.0000000993410012  0.0000000000000000   F   F   F
  0.3962027356029978  0.3333334326740029  0.0000000000000000   F   F   F
  0.8962027356029978  0.6666667660079995  0.0000000000000000   F   F   F
  0.1462027356029978  0.6666667660079995  0.0000000000000000   F   F   F
  0.3962027356029978  0.8333334326740029  0.0785672911050028   F   F   F
  0.6462027356029978  0.8333334326740029  0.0785672911050028   F   F   F
  0.3962027356029978  0.1666667660079995  0.0785672911050028   F   F   F
  0.1462027356029978  0.1666667660079995  0.0785672911050028   F   F   F
  0.8962027356029978  0.1666667660079995  0.0785672911050028   F   F   F
  0.8962027356029978  0.8333334326740029  0.0785672911050028   F   F   F
  0.6462027356029978  0.1666667660079995  0.0785672911050028   F   F   F
  0.1462027356029978  0.8333334326740029  0.0785672911050028   F   F   F
  0.3962027356029978  0.5000000993410012  0.0785672911050028   F   F   F
  0.1462027356029978  0.5000000993410012  0.0785672911050028   F   F   F
  0.8962027356029978  0.5000000993410012  0.0785672911050028   F   F   F
  0.6462027356029978  0.5000000993410012  0.0785672911050028   F   F   F
  0.6473822622332309  0.9984754590373064  0.1574326230789932   T   T   T
  0.3970029501966656  0.6670902033460897  0.1573829489351119   T   T   T
  0.6466752116517097  0.6685477511791360  0.1576287423414997   T   T   T
  0.8969779178808578  0.6669283140180129  0.1569371841865546   T   T   T
  0.1474657475856214  0.9995924199509256  0.1565369524614528   T   T   T
  0.8967506285030248  0.9973432541388059  0.1572732954043213   T   T   T
  0.3977971875481602  0.9987040250883722  0.1573788471674251   T   T   T
  0.1470508773601288  0.6666283221219240  0.1570974284884810   T   T   T
  0.3960813045235057  0.3331473875960295  0.1568031858962446   T   T   T
  0.8965915343610787  0.3337208583329750  0.1570157561493679   T   T   T
  0.6465770215462254  0.3335933946569974  0.1568879617066703   T   T   T
  0.1480815291065981  0.3326300117369798  0.1566881263467704   T   T   T
  0.6483162186825675  0.1661996677736794  0.2347351523676345   T   T   T
  0.6481273363754884  0.8339190475769107  0.2387029024014618   T   T   T
  0.3982988004144520  0.8315581667980767  0.2362980351357399   T   T   T
  0.8961549547490077  0.5023023518908364  0.2353322332972008   T   T   T
  0.1484343897545539  0.8330573585761213  0.2347557446933411   T   T   T
  0.6480541624656387  0.5024075564034429  0.2344229401668569   T   T   T
  0.3971602212261556  0.1647628082819215  0.2346097773193313   T   T   T
  0.8980045735980895  0.1641125816791963  0.2342535728995930   T   T   T
  0.3988838348739803  0.5010861381264037  0.2349144849712523   T   T   T
  0.1440962205964975  0.5002184194540655  0.2348676413159293   T   T   T
  0.1479382498774078  0.1646606772687952  0.2352581650843090   T   T   T
  0.8976365821665370  0.8284651220804974  0.2370900058848207   T   T   T
  0.6487133661269562  0.3416049446411527  0.3100441646952816   T   T   T
  0.8998207148483230  0.9986213401078956  0.3118288056138311   T   T   T
  0.1464561873166353  0.6754057181867902  0.3146364662257401   T   T   T
  0.3915294618586895  0.3292741659193069  0.3133801863363073   T   T   T
  0.6509738113397185  0.0061787392842392  0.3165084710723804   T   T   T
  0.6514639386234888  0.6610157145482178  0.3171800373111278   T   T   T
  0.4000765335973017  0.9968442057217626  0.3132498563150037   T   T   T
  0.9004525601901487  0.6594477198278372  0.3186550306240482   T   T   T
  0.4031599516592613  0.6693610674386823  0.3180894247620921   T   T   T
  0.9003682655704139  0.3308075531130311  0.3086313690122855   T   T   T
  0.1421259256052287  0.3263726289492720  0.3146953282180349   T   T   T
  0.1495966517823721  0.9973238429104688  0.3127952646036730   T   T   T
  0.6481207991028893  0.8430310437294269  0.3921702652566272   T   T   T
  0.1469607866310024  0.8357902909250313  0.3938845452287110   T   T   T
  0.4069031020505126  0.8417189498785633  0.3954709996986801   T   T   T
  0.4085080085263613  0.1538911196613480  0.3944337743450457   T   T   T
  0.1427962808861247  0.1606994999794472  0.3921744135256868   T   T   T
  0.9073360844508741  0.8373377235636839  0.3911379257825381   T   T   T
  0.9055863759095744  0.1609033684366026  0.3885121127605438   T   T   T
  0.6707447901358001  0.2125953314535755  0.4011233298771860   T   T   T
  0.8386647280429346  0.4361555976124842  0.3963407046428640   T   T   T
  0.6497675080385458  0.5630030314089189  0.4321792215754448   T   T   T
  0.0988606850722736  0.5032650521090697  0.3921553915057523   T   T   T
  0.5268412374953264  0.2580546097542565  0.3568428231041810   T   T   T
  0.6696596653530341  0.3930804081260715  0.4266569694507411   T   T   T
  0.3931148594861398  0.5211094725100965  0.4058968542176238   T   T   T
  0.3866348094487292  0.4394485520858609  0.4451441454609552   T   T   T
  0.5281462385335089  0.3624187608821912  0.4695772185229665   T   T   T
  0.4934317327705056  0.3114192891555834  0.5076915888246758   T   T   T
