CeO2-110-l3-p23:                        
   1.00000000000000     
    10.9800000000000004    0.0000000000000000    0.0000000000000000
     0.0000000000000000   11.6460486861424357    0.0000000000000000
     0.0000000000000000    0.0000000000000000   24.7050405717853714
    35    71     2     2
Selective dynamics
Direct
  0.7712027356029978  0.1666667660079995  0.0000000000000000   F   F   F
  0.7712027356029978  0.5000000993410012  0.0000000000000000   F   F   F
  0.2712027356029978  0.1666667660079995  0.0000000000000000   F   F   F
  0.7712027356029978  0.8333334326740029  0.0000000000000000   F   F   F
  0.2712027356029978  0.5000000993410012  0.0000000000000000   F   F   F
  0.2712027356029978  0.8333334326740029  0.0000000000000000   F   F   F
  0.5212027356029978  0.0000000993410012  0.0785672911050028   F   F   F
  0.5212027356029978  0.6666667660079995  0.0785672911050028   F   F   F
  0.0212027356029978  0.0000000993410012  0.0785672911050028   F   F   F
  0.5212027356029978  0.3333334326740029  0.0785672911050028   F   F   F
  0.0212027356029978  0.3333334326740029  0.0785672911050028   F   F   F
  0.0212027356029978  0.6666667660079995  0.0785672911050028   F   F   F
  0.7714014658045170  0.1671233710176878  0.1575175442459087   T   T   T
  0.7711443329153640  0.8327951358856833  0.1575854575099905   T   T   T
  0.2709585896377389  0.1659486991248919  0.1575088773750380   T   T   T
  0.7718842909766553  0.5002595187397045  0.1566146678188982   T   T   T
  0.2712062616576400  0.4997703331139788  0.1579188702345376   T   T   T
  0.2720369717888739  0.8330025177147528  0.1573546079624727   T   T   T
  0.0235401815548152  0.6654925197843999  0.2344959043738443   T   T   T
  0.5205098801877190  0.6669738011468054  0.2345476550433195   T   T   T
  0.0232488115797729  0.3333464501440550  0.2355727282847944   T   T   T
  0.0237750182563696  0.9980477168942201  0.2334345477625627   T   T   T
  0.5235552803436403  0.0014980266927968  0.2343610064750896   T   T   T
  0.5176602787046497  0.3327585826559905  0.2326055967391503   T   T   T
  0.7671784149934953  0.5009322870999332  0.3106846291375796   T   T   T
  0.7788510280007703  0.1677353101133167  0.3150461125791708   T   T   T
  0.2675764091256394  0.4982544546327004  0.3183987011369053   T   T   T
  0.2794063205366641  0.8320965263825700  0.3161090512104218   T   T   T
  0.2689194280395367  0.1633395184299983  0.3169353503628294   T   T   T
  0.7758302278507760  0.8337722886945739  0.3160528893763288   T   T   T
  0.0279252198068269  0.9984465473569019  0.3849443747776101   T   T   T
  0.5251392178548030  0.9914605954924076  0.3874900660916580   T   T   T
  0.0321349705463035  0.6821146188268414  0.3877082582358811   T   T   T
  0.5334668883306810  0.6743896837981721  0.3889226595540848   T   T   T
  0.0198135471980120  0.3196089260188111  0.3916041372242954   T   T   T
  0.6462027356029978  0.3333334326740029  0.0000000000000000   F   F   F
  0.1462027356029978  0.0000000993410012  0.0000000000000000   F   F   F
  0.6462027356029978  0.6666667660079995  0.0000000000000000   F   F   F
  0.8962027356029978  0.0000000993410012  0.0000000000000000   F   F   F
  0.8962027356029978  0.3333334326740029  0.0000000000000000   F   F   F
  0.1462027356029978  0.3333334326740029  0.0000000000000000   F   F   F
  0.3962027356029978  0.6666667660079995  0.0000000000000000   F   F   F
  0.3962027356029978  0.0000000993410012  0.0000000000000000   F   F   F
  0.6462027356029978  0.0000000993410012  0.0000000000000000   F   F   F
  0.3962027356029978  0.3333334326740029  0.0000000000000000   F   F   F
  0.8962027356029978  0.6666667660079995  0.0000000000000000   F   F   F
  0.1462027356029978  0.6666667660079995  0.0000000000000000   F   F   F
  0.3962027356029978  0.8333334326740029  0.0785672911050028   F   F   F
  0.6462027356029978  0.8333334326740029  0.0785672911050028   F   F   F
  0.3962027356029978  0.1666667660079995  0.0785672911050028   F   F   F
  0.1462027356029978  0.1666667660079995  0.0785672911050028   F   F   F
  0.8962027356029978  0.1666667660079995  0.0785672911050028   F   F   F
  0.8962027356029978  0.8333334326740029  0.0785672911050028   F   F   F
  0.6462027356029978  0.1666667660079995  0.0785672911050028   F   F   F
  0.1462027356029978  0.8333334326740029  0.0785672911050028   F   F   F
  0.3962027356029978  0.5000000993410012  0.0785672911050028   F   F   F
  0.1462027356029978  0.5000000993410012  0.0785672911050028   F   F   F
  0.8962027356029978  0.5000000993410012  0.0785672911050028   F   F   F
  0.6462027356029978  0.5000000993410012  0.0785672911050028   F   F   F
  0.6473701794725182 -0.0003366250836079  0.1564444732260286   T   T   T
  0.3960500985793003  0.6668558917915919  0.1570038079826004   T   T   T
  0.6467764150020521  0.6684291335457393  0.1570723031076279   T   T   T
  0.8967724465807810  0.6667273996910936  0.1566162534609328   T   T   T
  0.1470248811574242 -0.0002769051098755  0.1562783414815714   T   T   T
  0.8965789319747982  0.9992173615263503  0.1579782303763609   T   T   T
  0.3970681299075945  0.0000389692201852  0.1573009135495580   T   T   T
  0.1467294826860684  0.6656083667993447  0.1571976825858047   T   T   T
  0.3948585521061770  0.3320696789406432  0.1561592568215676   T   T   T
  0.8961716580593458  0.3332387675460217  0.1571794641682102   T   T   T
  0.6458793788738341  0.3330865842072576  0.1567506263967624   T   T   T
  0.1463729768512312  0.3332355381935178  0.1575990306295066   T   T   T
  0.6478091320724012  0.1644503514894050  0.2345917772394667   T   T   T
  0.6481176022952790  0.8375208148521517  0.2362514322187535   T   T   T
  0.3979957377862828  0.8330465159812342  0.2354302964238500   T   T   T
  0.8954787801246713  0.5013897700435066  0.2344935421207972   T   T   T
  0.1479716622451080  0.8330970321926153  0.2340914182655226   T   T   T
  0.6464864140310033  0.5018181099448614  0.2338048027733350   T   T   T
  0.3955359572299016  0.1664295792338661  0.2356229646887182   T   T   T
  0.8974854235245409  0.1691691822079468  0.2365153991671022   T   T   T
  0.3971777686547792  0.4978743168655848  0.2343203818518563   T   T   T
  0.1442118519359687  0.4997947856946837  0.2363794159886951   T   T   T
  0.1463722366202347  0.1641671012743390  0.2352226909182353   T   T   T
  0.8976808978971887  0.8268008180434990  0.2366567623249427   T   T   T
  0.6432641173233438  0.3386283602520878  0.3076538061104702   T   T   T
  0.9004989364477957  0.9965460587177914  0.3103096362621141   T   T   T
  0.1486334563300127  0.6755335128305993  0.3138628414241768   T   T   T
  0.3953963107143825  0.3280132212688840  0.3172709844525941   T   T   T
  0.6516014650514773  0.0041220814114682  0.3165210257259373   T   T   T
  0.6508930671898986  0.6694009648949983  0.3115536532795933   T   T   T
  0.4014400581534645 -0.0023662746548907  0.3134400492039012   T   T   T
  0.9003607368226695  0.6566119761773238  0.3193171819883293   T   T   T
  0.4051664910595718  0.6668793715716705  0.3147109709533475   T   T   T
  0.8992833252725284  0.3408490590447126  0.3152836612341398   T   T   T
  0.1453178866428363  0.3239187789589426  0.3149089722727309   T   T   T
  0.1504960216279967  0.9964946632365610  0.3119083173194483   T   T   T
  0.6497210055551166  0.8357909721165636  0.3922766951056452   T   T   T
  0.1503191923921857  0.8361620906260727  0.3931646840180970   T   T   T
  0.4104640306350050  0.8363039054042150  0.3920133086342419   T   T   T
  0.4111856949986343  0.1528422213521244  0.3954249821143282   T   T   T
  0.1478055407429159  0.1559810199317202  0.3934072760736121   T   T   T
  0.9090916503259395  0.8359530269151239  0.3906262997552379   T   T   T
  0.9087738757763391  0.1528024280426979  0.3871233845499805   T   T   T
  0.6678785402934471  0.1830890258890809  0.4014717675804816   T   T   T
  0.8723602829310682  0.3859809982236471  0.4405929898806955   T   T   T
  0.6840158476944692  0.5233044808179659  0.3959233874444792   T   T   T
  0.0989380448473265  0.5053769753042162  0.3907129279954709   T   T   T
  0.5294849104711370  0.2571102507893932  0.3600270835194938   T   T   T
  0.7081381065225326  0.3558488326622862  0.4121252339463309   T   T   T
  0.3811356428934458  0.5376563466003078  0.4084626667458499   T   T   T
  0.4293685147493105  0.5707475555853266  0.4570206346198719   T   T   T
