CeO2-110-l3-p23:                        
   1.00000000000000     
    10.9800000000000004    0.0000000000000000    0.0000000000000000
     0.0000000000000000   11.6460486861424357    0.0000000000000000
     0.0000000000000000    0.0000000000000000   24.7050405717853714
   Ce   O    Pt   O    C    O 
    36    72     1     1     1     1
Selective dynamics
Direct
  0.7712027356029978  0.1666667660079995  0.0000000000000000   F   F   F
  0.7712027356029978  0.5000000993410012  0.0000000000000000   F   F   F
  0.2712027356029978  0.1666667660079995  0.0000000000000000   F   F   F
  0.7712027356029978  0.8333334326740029  0.0000000000000000   F   F   F
  0.2712027356029978  0.5000000993410012  0.0000000000000000   F   F   F
  0.2712027356029978  0.8333334326740029  0.0000000000000000   F   F   F
  0.5212027356029978  0.0000000993410012  0.0785672911050028   F   F   F
  0.5212027356029978  0.6666667660079995  0.0785672911050028   F   F   F
  0.0212027356029978  0.0000000993410012  0.0785672911050028   F   F   F
  0.5212027356029978  0.3333334326740029  0.0785672911050028   F   F   F
  0.0212027356029978  0.3333334326740029  0.0785672911050028   F   F   F
  0.0212027356029978  0.6666667660079995  0.0785672911050028   F   F   F
  0.7709888862121606  0.1673299552142510  0.1574060238519748   T   T   T
  0.7714268423285984  0.8330043070329094  0.1577982667920129   T   T   T
  0.2711644816519907  0.1665277422712992  0.1576039173427300   T   T   T
  0.7714448435695976  0.5002640768381582  0.1577369685032067   T   T   T
  0.2708030520118674  0.5008293502965246  0.1579083167091766   T   T   T
  0.2710532865509513  0.8328099726144855  0.1567185246769389   T   T   T
  0.0199221015350423  0.6660272025615904  0.2359227077418541   T   T   T
  0.5224053161804798  0.6662560560951271  0.2341707463269310   T   T   T
  0.0212963288291811  0.3336153452490062  0.2336057495371801   T   T   T
  0.0199500414681025  0.0011301248520003  0.2332775057494722   T   T   T
  0.5223311938857161  0.0003511492466436  0.2338422740842956   T   T   T
  0.5208177346842175  0.3340893999082131  0.2339441566488063   T   T   T
  0.7727452746644922  0.5007737607677718  0.3175878913436856   T   T   T
  0.7707368126345399  0.1682262266790430  0.3163915948446385   T   T   T
  0.2688030196617354  0.5007477659412845  0.3173424899186800   T   T   T
  0.2699172471597515  0.8334078092961443  0.3118563793358012   T   T   T
  0.2703713920247377  0.1663029856404867  0.3163966215047758   T   T   T
  0.7726532449837593  0.8336382202505455  0.3173306251660454   T   T   T
  0.0183902814452142  0.0062034909939623  0.3845298966751087   T   T   T
  0.5230150711555137  0.0053578443343852  0.3859114356911819   T   T   T
  0.0192843706254185  0.6611022328661619  0.3924352992623565   T   T   T
  0.5227734729428719  0.6630426592851649  0.3860707766081900   T   T   T
  0.0207300585850962  0.3338925885117617  0.3848458919271506   T   T   T
  0.5207089391461457  0.3342837124371711  0.3849320168460558   T   T   T
  0.6462027356029978  0.3333334326740029  0.0000000000000000   F   F   F
  0.1462027356029978  0.0000000993410012  0.0000000000000000   F   F   F
  0.6462027356029978  0.6666667660079995  0.0000000000000000   F   F   F
  0.8962027356029978  0.0000000993410012  0.0000000000000000   F   F   F
  0.8962027356029978  0.3333334326740029  0.0000000000000000   F   F   F
  0.1462027356029978  0.3333334326740029  0.0000000000000000   F   F   F
  0.3962027356029978  0.6666667660079995  0.0000000000000000   F   F   F
  0.3962027356029978  0.0000000993410012  0.0000000000000000   F   F   F
  0.6462027356029978  0.0000000993410012  0.0000000000000000   F   F   F
  0.3962027356029978  0.3333334326740029  0.0000000000000000   F   F   F
  0.8962027356029978  0.6666667660079995  0.0000000000000000   F   F   F
  0.1462027356029978  0.6666667660079995  0.0000000000000000   F   F   F
  0.3962027356029978  0.8333334326740029  0.0785672911050028   F   F   F
  0.6462027356029978  0.8333334326740029  0.0785672911050028   F   F   F
  0.3962027356029978  0.1666667660079995  0.0785672911050028   F   F   F
  0.1462027356029978  0.1666667660079995  0.0785672911050028   F   F   F
  0.8962027356029978  0.1666667660079995  0.0785672911050028   F   F   F
  0.8962027356029978  0.8333334326740029  0.0785672911050028   F   F   F
  0.6462027356029978  0.1666667660079995  0.0785672911050028   F   F   F
  0.1462027356029978  0.8333334326740029  0.0785672911050028   F   F   F
  0.3962027356029978  0.5000000993410012  0.0785672911050028   F   F   F
  0.1462027356029978  0.5000000993410012  0.0785672911050028   F   F   F
  0.8962027356029978  0.5000000993410012  0.0785672911050028   F   F   F
  0.6462027356029978  0.5000000993410012  0.0785672911050028   F   F   F
  0.6463208032997400 -0.0000519592758682  0.1571848619927314   T   T   T
  0.3963317038909895  0.6663510565315476  0.1568230494197268   T   T   T
  0.6462567266703738  0.6670956755448737  0.1570699610551861   T   T   T
  0.8961016886475377  0.6669800310520235  0.1573838244069867   T   T   T
  0.1464295357527410  0.9994838134279134  0.1565784558022311   T   T   T
  0.8955887041401944 -0.0003041511173075  0.1567023787993493   T   T   T
  0.3961722771670744  0.0003926290059074  0.1568489461363977   T   T   T
  0.1460759625081287  0.6665478323373097  0.1571205303506049   T   T   T
  0.3958384158562509  0.3332262437937314  0.1576411209766260   T   T   T
  0.8958241694175409  0.3339040791280670  0.1565448512583244   T   T   T
  0.6461404177657201  0.3335921212382998  0.1568938169262990   T   T   T
  0.1466381160327872  0.3342473225392822  0.1569457423379334   T   T   T
  0.6457120658341999  0.1679047052744305  0.2350595383523557   T   T   T
  0.6461722993560330  0.8334940951171840  0.2359114162873376   T   T   T
  0.3963084085674511  0.8334067359489071  0.2344431979852160   T   T   T
  0.8964135172710619  0.5003505599433886  0.2354784276790197   T   T   T
  0.1469573157814174  0.8327205011097838  0.2350241658836840   T   T   T
  0.6458593009169279  0.4997240478986695  0.2351261478005156   T   T   T
  0.3961858869668110  0.1647324220508125  0.2362196053075103   T   T   T
  0.8961472496854865  0.1676571609345442  0.2343827547565014   T   T   T
  0.3962142125627064  0.5019310454628574  0.2362495856931762   T   T   T
  0.1458363938758803  0.5017510805446147  0.2361640565301538   T   T   T
  0.1459800498712343  0.1660972842191968  0.2344189226956928   T   T   T
  0.8969752293968153  0.8333531705396062  0.2359094401182858   T   T   T
  0.6451195769082364  0.3344304242304880  0.3132908412370496   T   T   T
  0.8947303780465555  0.0042994790207830  0.3116016271208022   T   T   T
  0.1453253111398676  0.6698997183197962  0.3156568083679210   T   T   T
  0.3957225068124841  0.3332610592575905  0.3130193903969550   T   T   T
  0.6455019484401131  0.0029747223177545  0.3132598774985388   T   T   T
  0.6454159317591447  0.6649242962312373  0.3134656477406284   T   T   T
  0.3970307731673426  0.9942712345616705  0.3146334457912846   T   T   T
  0.8936621720217480  0.6651375968563253  0.3145508223515581   T   T   T
  0.3974582396831817  0.6727689960646815  0.3146861110740734   T   T   T
  0.8960418555752951  0.3332211558711521  0.3122940693827497   T   T   T
  0.1462290917786175  0.3305506004100197  0.3115134172667687   T   T   T
  0.1440242278368956 -0.0002514178839439  0.3114112107373478   T   T   T
  0.6353299414827659  0.8346670094625457  0.3884324755656012   T   T   T
  0.1593877959894827  0.8489692224848053  0.3919862827547440   T   T   T
  0.3998916592170227  0.8347925429857025  0.4033525664085912   T   T   T
  0.4029407687621739  0.1657762934808391  0.3901169138511771   T   T   T
  0.1394727766433726  0.1650554598866693  0.3898249585084552   T   T   T
  0.9093582348171498  0.8416513152502477  0.3879613875313652   T   T   T
  0.9005912067192788  0.1675542615335715  0.3906730502536231   T   T   T
  0.6393309266929040  0.1683045011800533  0.3915600439533696   T   T   T
  0.4035868702858302  0.4997012017373960  0.3898661888044008   T   T   T
  0.9005693198638300  0.4942399074035161  0.3920989979132076   T   T   T
  0.6395746840783455  0.5003441798806455  0.3918484975436291   T   T   T
  0.1405226809401267  0.4904265171877656  0.3887235048899771   T   T   T
  0.2570992531490761  0.7697198957496104  0.4474917210641499   T   T   T
  0.0956219940378579  0.7060908627078752  0.4691984239553845   T   T   T
  0.3429847655091393  0.6979076656214036  0.5014371953569423   T   T   T
  0.3994504082656016  0.6549256568781427  0.5360208500322110   T   T   T
 
  0.00000000E+00  0.00000000E+00  0.00000000E+00
  0.00000000E+00  0.00000000E+00  0.00000000E+00
  0.00000000E+00  0.00000000E+00  0.00000000E+00
  0.00000000E+00  0.00000000E+00  0.00000000E+00
  0.00000000E+00  0.00000000E+00  0.00000000E+00
  0.00000000E+00  0.00000000E+00  0.00000000E+00
  0.00000000E+00  0.00000000E+00  0.00000000E+00
  0.00000000E+00  0.00000000E+00  0.00000000E+00
  0.00000000E+00  0.00000000E+00  0.00000000E+00
  0.00000000E+00  0.00000000E+00  0.00000000E+00
  0.00000000E+00  0.00000000E+00  0.00000000E+00
  0.00000000E+00  0.00000000E+00  0.00000000E+00
  0.00000000E+00  0.00000000E+00  0.00000000E+00
  0.00000000E+00  0.00000000E+00  0.00000000E+00
  0.00000000E+00  0.00000000E+00  0.00000000E+00
  0.00000000E+00  0.00000000E+00  0.00000000E+00
  0.00000000E+00  0.00000000E+00  0.00000000E+00
  0.00000000E+00  0.00000000E+00  0.00000000E+00
  0.00000000E+00  0.00000000E+00  0.00000000E+00
  0.00000000E+00  0.00000000E+00  0.00000000E+00
  0.00000000E+00  0.00000000E+00  0.00000000E+00
  0.00000000E+00  0.00000000E+00  0.00000000E+00
  0.00000000E+00  0.00000000E+00  0.00000000E+00
  0.00000000E+00  0.00000000E+00  0.00000000E+00
  0.00000000E+00  0.00000000E+00  0.00000000E+00
  0.00000000E+00  0.00000000E+00  0.00000000E+00
  0.00000000E+00  0.00000000E+00  0.00000000E+00
  0.00000000E+00  0.00000000E+00  0.00000000E+00
  0.00000000E+00  0.00000000E+00  0.00000000E+00
  0.00000000E+00  0.00000000E+00  0.00000000E+00
  0.00000000E+00  0.00000000E+00  0.00000000E+00
  0.00000000E+00  0.00000000E+00  0.00000000E+00
  0.00000000E+00  0.00000000E+00  0.00000000E+00
  0.00000000E+00  0.00000000E+00  0.00000000E+00
  0.00000000E+00  0.00000000E+00  0.00000000E+00
  0.00000000E+00  0.00000000E+00  0.00000000E+00
  0.00000000E+00  0.00000000E+00  0.00000000E+00
  0.00000000E+00  0.00000000E+00  0.00000000E+00
  0.00000000E+00  0.00000000E+00  0.00000000E+00
  0.00000000E+00  0.00000000E+00  0.00000000E+00
  0.00000000E+00  0.00000000E+00  0.00000000E+00
  0.00000000E+00  0.00000000E+00  0.00000000E+00
  0.00000000E+00  0.00000000E+00  0.00000000E+00
  0.00000000E+00  0.00000000E+00  0.00000000E+00
  0.00000000E+00  0.00000000E+00  0.00000000E+00
  0.00000000E+00  0.00000000E+00  0.00000000E+00
  0.00000000E+00  0.00000000E+00  0.00000000E+00
  0.00000000E+00  0.00000000E+00  0.00000000E+00
  0.00000000E+00  0.00000000E+00  0.00000000E+00
  0.00000000E+00  0.00000000E+00  0.00000000E+00
  0.00000000E+00  0.00000000E+00  0.00000000E+00
  0.00000000E+00  0.00000000E+00  0.00000000E+00
  0.00000000E+00  0.00000000E+00  0.00000000E+00
  0.00000000E+00  0.00000000E+00  0.00000000E+00
  0.00000000E+00  0.00000000E+00  0.00000000E+00
  0.00000000E+00  0.00000000E+00  0.00000000E+00
  0.00000000E+00  0.00000000E+00  0.00000000E+00
  0.00000000E+00  0.00000000E+00  0.00000000E+00
  0.00000000E+00  0.00000000E+00  0.00000000E+00
  0.00000000E+00  0.00000000E+00  0.00000000E+00
  0.00000000E+00  0.00000000E+00  0.00000000E+00
  0.00000000E+00  0.00000000E+00  0.00000000E+00
  0.00000000E+00  0.00000000E+00  0.00000000E+00
  0.00000000E+00  0.00000000E+00  0.00000000E+00
  0.00000000E+00  0.00000000E+00  0.00000000E+00
  0.00000000E+00  0.00000000E+00  0.00000000E+00
  0.00000000E+00  0.00000000E+00  0.00000000E+00
  0.00000000E+00  0.00000000E+00  0.00000000E+00
  0.00000000E+00  0.00000000E+00  0.00000000E+00
  0.00000000E+00  0.00000000E+00  0.00000000E+00
  0.00000000E+00  0.00000000E+00  0.00000000E+00
  0.00000000E+00  0.00000000E+00  0.00000000E+00
  0.00000000E+00  0.00000000E+00  0.00000000E+00
  0.00000000E+00  0.00000000E+00  0.00000000E+00
  0.00000000E+00  0.00000000E+00  0.00000000E+00
  0.00000000E+00  0.00000000E+00  0.00000000E+00
  0.00000000E+00  0.00000000E+00  0.00000000E+00
  0.00000000E+00  0.00000000E+00  0.00000000E+00
  0.00000000E+00  0.00000000E+00  0.00000000E+00
  0.00000000E+00  0.00000000E+00  0.00000000E+00
  0.00000000E+00  0.00000000E+00  0.00000000E+00
  0.00000000E+00  0.00000000E+00  0.00000000E+00
  0.00000000E+00  0.00000000E+00  0.00000000E+00
  0.00000000E+00  0.00000000E+00  0.00000000E+00
  0.00000000E+00  0.00000000E+00  0.00000000E+00
  0.00000000E+00  0.00000000E+00  0.00000000E+00
  0.00000000E+00  0.00000000E+00  0.00000000E+00
  0.00000000E+00  0.00000000E+00  0.00000000E+00
  0.00000000E+00  0.00000000E+00  0.00000000E+00
  0.00000000E+00  0.00000000E+00  0.00000000E+00
  0.00000000E+00  0.00000000E+00  0.00000000E+00
  0.00000000E+00  0.00000000E+00  0.00000000E+00
  0.00000000E+00  0.00000000E+00  0.00000000E+00
  0.00000000E+00  0.00000000E+00  0.00000000E+00
  0.00000000E+00  0.00000000E+00  0.00000000E+00
  0.00000000E+00  0.00000000E+00  0.00000000E+00
  0.00000000E+00  0.00000000E+00  0.00000000E+00
  0.00000000E+00  0.00000000E+00  0.00000000E+00
  0.00000000E+00  0.00000000E+00  0.00000000E+00
  0.00000000E+00  0.00000000E+00  0.00000000E+00
  0.00000000E+00  0.00000000E+00  0.00000000E+00
  0.00000000E+00  0.00000000E+00  0.00000000E+00
  0.00000000E+00  0.00000000E+00  0.00000000E+00
  0.00000000E+00  0.00000000E+00  0.00000000E+00
  0.00000000E+00  0.00000000E+00  0.00000000E+00
  0.00000000E+00  0.00000000E+00  0.00000000E+00
  0.00000000E+00  0.00000000E+00  0.00000000E+00
  0.00000000E+00  0.00000000E+00  0.00000000E+00
  0.00000000E+00  0.00000000E+00  0.00000000E+00
  0.00000000E+00  0.00000000E+00  0.00000000E+00
  0.00000000E+00  0.00000000E+00  0.00000000E+00
  0.00000000E+00  0.00000000E+00  0.00000000E+00
