CeO2-110-l3-p23:                        
   1.00000000000000     
    10.9800000000000004    0.0000000000000000    0.0000000000000000
     0.0000000000000000   11.6460486861424357    0.0000000000000000
     0.0000000000000000    0.0000000000000000   24.7050405717853714
    36    72     1     1     1     1
Selective dynamics
Direct
  0.7712027356029978  0.1666667660079995  0.0000000000000000   F   F   F
  0.7712027356029978  0.5000000993410012  0.0000000000000000   F   F   F
  0.2712027356029978  0.1666667660079995  0.0000000000000000   F   F   F
  0.7712027356029978  0.8333334326740029  0.0000000000000000   F   F   F
  0.2712027356029978  0.5000000993410012  0.0000000000000000   F   F   F
  0.2712027356029978  0.8333334326740029  0.0000000000000000   F   F   F
  0.5212027356029978  0.0000000993410012  0.0785672911050028   F   F   F
  0.5212027356029978  0.6666667660079995  0.0785672911050028   F   F   F
  0.0212027356029978  0.0000000993410012  0.0785672911050028   F   F   F
  0.5212027356029978  0.3333334326740029  0.0785672911050028   F   F   F
  0.0212027356029978  0.3333334326740029  0.0785672911050028   F   F   F
  0.0212027356029978  0.6666667660079995  0.0785672911050028   F   F   F
  0.7711710347849844  0.1675359333654764  0.1576733922823161   T   T   T
  0.7707937921101595  0.8332885868269456  0.1576415846700158   T   T   T
  0.2706857886112923  0.1666508710746089  0.1579996592246874   T   T   T
  0.7712036811979094  0.4993217329756667  0.1577324279276103   T   T   T
  0.2707011952862923  0.4999055252254178  0.1580008153602713   T   T   T
  0.2710522719722158  0.8331636790783779  0.1565942958722175   T   T   T
  0.0194960742110534  0.6662499183583530  0.2336794974333123   T   T   T
  0.5216247755099200  0.6656702408455615  0.2342007968349035   T   T   T
  0.0212841969357962  0.3333299255112226  0.2354874593369462   T   T   T
  0.0195577253706086  0.0001888133097623  0.2334974077966820   T   T   T
  0.5215861525592662  0.0009679481164150  0.2340120747760931   T   T   T
  0.5205015549449298  0.3333601541836003  0.2343029611480590   T   T   T
  0.7726000988193296  0.4995945260365646  0.3172133682194707   T   T   T
  0.7729112796786820  0.1679294521194411  0.3168688787978463   T   T   T
  0.2685840825690127  0.5005568645199820  0.3174917061068572   T   T   T
  0.2695349174859362  0.8331852661117339  0.3115033560713372   T   T   T
  0.2687480192386079  0.1656188227587293  0.3175292882990549   T   T   T
  0.7702639486908902  0.8331817831475161  0.3169792191247633   T   T   T
  0.0171315491531618  0.0043891381953577  0.3853914047523214   T   T   T
  0.5249704911873175  0.0087459817448918  0.3858394943952238   T   T   T
  0.0174644082795555  0.6621609655897749  0.3859551467637409   T   T   T
  0.5233977421437562  0.6592848889167761  0.3864365817367445   T   T   T
  0.0206990089000252  0.3333016884655307  0.3897727354434879   T   T   T
  0.5206097721530929  0.3338825201307348  0.3851582146188531   T   T   T
  0.6462027356029978  0.3333334326740029  0.0000000000000000   F   F   F
  0.1462027356029978  0.0000000993410012  0.0000000000000000   F   F   F
  0.6462027356029978  0.6666667660079995  0.0000000000000000   F   F   F
  0.8962027356029978  0.0000000993410012  0.0000000000000000   F   F   F
  0.8962027356029978  0.3333334326740029  0.0000000000000000   F   F   F
  0.1462027356029978  0.3333334326740029  0.0000000000000000   F   F   F
  0.3962027356029978  0.6666667660079995  0.0000000000000000   F   F   F
  0.3962027356029978  0.0000000993410012  0.0000000000000000   F   F   F
  0.6462027356029978  0.0000000993410012  0.0000000000000000   F   F   F
  0.3962027356029978  0.3333334326740029  0.0000000000000000   F   F   F
  0.8962027356029978  0.6666667660079995  0.0000000000000000   F   F   F
  0.1462027356029978  0.6666667660079995  0.0000000000000000   F   F   F
  0.3962027356029978  0.8333334326740029  0.0785672911050028   F   F   F
  0.6462027356029978  0.8333334326740029  0.0785672911050028   F   F   F
  0.3962027356029978  0.1666667660079995  0.0785672911050028   F   F   F
  0.1462027356029978  0.1666667660079995  0.0785672911050028   F   F   F
  0.8962027356029978  0.1666667660079995  0.0785672911050028   F   F   F
  0.8962027356029978  0.8333334326740029  0.0785672911050028   F   F   F
  0.6462027356029978  0.1666667660079995  0.0785672911050028   F   F   F
  0.1462027356029978  0.8333334326740029  0.0785672911050028   F   F   F
  0.3962027356029978  0.5000000993410012  0.0785672911050028   F   F   F
  0.1462027356029978  0.5000000993410012  0.0785672911050028   F   F   F
  0.8962027356029978  0.5000000993410012  0.0785672911050028   F   F   F
  0.6462027356029978  0.5000000993410012  0.0785672911050028   F   F   F
  0.6459941248386549  0.9997151961613170  0.1572321049041767   T   T   T
  0.3959853288512670  0.6664881040190983  0.1570584979347484   T   T   T
  0.6459513206747948  0.6670829150431156  0.1572829562012739   T   T   T
  0.8953490957590309  0.6664554566647753  0.1567745004943087   T   T   T
  0.1461852710502366  0.0003643574436519  0.1566246545802029   T   T   T
  0.8953141713501488  0.0002655125751541  0.1567995714776000   T   T   T
  0.3959492971584618 -0.0000831968059213  0.1570250177274640   T   T   T
  0.1462060818090135  0.6659488642506941  0.1566841720510350   T   T   T
  0.3956350285597451  0.3334254521347632  0.1575146909135910   T   T   T
  0.8960231161833998  0.3333843670247189  0.1570063126344864   T   T   T
  0.6459267500876543  0.3333629069296752  0.1568964413197897   T   T   T
  0.1464391587157272  0.3332920333080871  0.1577251589610858   T   T   T
  0.6454806971297521  0.1673104629669879  0.2351239883611969   T   T   T
  0.6449579582375626  0.8333977318485083  0.2362775979525795   T   T   T
  0.3948570035360374  0.8331764408617054  0.2351695808756657   T   T   T
  0.8962374084223733  0.4992655783457265  0.2352580356933262   T   T   T
  0.1466506709034690  0.8331896730148599  0.2338857554525582   T   T   T
  0.6453882028007624  0.4996792046184170  0.2351459971499578   T   T   T
  0.3957932413516645  0.1649313986266952  0.2360862062519409   T   T   T
  0.8962876740499449  0.1676962070075487  0.2352852654964820   T   T   T
  0.3957587489501234  0.5017026565055733  0.2363333350830675   T   T   T
  0.1454537776816737  0.5011299788327793  0.2362800635450392   T   T   T
  0.1455070743432066  0.1649686498818501  0.2361204421878883   T   T   T
  0.8957217744505186  0.8331992672525963  0.2348293556847713   T   T   T
  0.6446821411490404  0.3336937712868090  0.3133142991568266   T   T   T
  0.8948729204779486  0.0001797003273570  0.3114418082075911   T   T   T
  0.1443569003426419  0.6731769669583716  0.3126101003352246   T   T   T
  0.3959916510198453  0.3326495016442571  0.3133496883948412   T   T   T
  0.6460641527071137  0.0034355643785403  0.3135340020158744   T   T   T
  0.6453895292970476  0.6638051955976816  0.3137953170330499   T   T   T
  0.3972776603513087  0.9958231174994789  0.3146216077412298   T   T   T
  0.8948869196609363  0.6665106728648178  0.3116855062661750   T   T   T
  0.3967213211657161  0.6711858884478866  0.3150351511776991   T   T   T
  0.8942440953044106  0.3338563671867338  0.3138107877021860   T   T   T
  0.1485429745831876  0.3323467006429926  0.3136590354973935   T   T   T
  0.1444752546547593  0.9932174855404607  0.3125095758614718   T   T   T
  0.6321411893301704  0.8338252719806650  0.3888684980914445   T   T   T
  0.1467749248275714  0.8343203511004477  0.3968197231472179   T   T   T
  0.3975831781933371  0.8369869773812981  0.3974486316059556   T   T   T
  0.4038762131126813  0.1663334180648249  0.3910603921871076   T   T   T
  0.1425866395421186  0.1545272577554022  0.3905104770645193   T   T   T
  0.9049962161347752  0.8333567277752162  0.3885919217518547   T   T   T
  0.8973146839207283  0.1562383405320162  0.3915476969617603   T   T   T
  0.6401043917188138  0.1691106781004130  0.3919756312124216   T   T   T
  0.4032988537448173  0.4988871428543605  0.3904162787321362   T   T   T
  0.8967501285621037  0.5107659670250968  0.3918627957277779   T   T   T
  0.6389977287802572  0.4987734345157148  0.3921058958093173   T   T   T
  0.1415755449332113  0.5103581347009676  0.3897108959214453   T   T   T
  0.2806100836322290  0.7935639926516374  0.4518352896419635   T   T   T
  0.1706277959872888  0.7339043428017561  0.5176182151961813   T   T   T
  0.2857676077533546  0.7224165607039559  0.5249705809722085   T   T   T
  0.3595932624684851  0.6878412114140799  0.5575044428836411   T   T   T
