CeO2-110-l3-p23:                        
   1.00000000000000     
    10.9800000000000004    0.0000000000000000    0.0000000000000000
     0.0000000000000000   11.6460486861424357    0.0000000000000000
     0.0000000000000000    0.0000000000000000   24.7050405717853714
    35    72     2     1     1
Selective dynamics
Direct
  0.7712027356029978  0.1666667660079995  0.0000000000000000   F   F   F
  0.7712027356029978  0.5000000993410012  0.0000000000000000   F   F   F
  0.2712027356029978  0.1666667660079995  0.0000000000000000   F   F   F
  0.7712027356029978  0.8333334326740029  0.0000000000000000   F   F   F
  0.2712027356029978  0.5000000993410012  0.0000000000000000   F   F   F
  0.2712027356029978  0.8333334326740029  0.0000000000000000   F   F   F
  0.5212027356029978  0.0000000993410012  0.0785672911050028   F   F   F
  0.5212027356029978  0.6666667660079995  0.0785672911050028   F   F   F
  0.0212027356029978  0.0000000993410012  0.0785672911050028   F   F   F
  0.5212027356029978  0.3333334326740029  0.0785672911050028   F   F   F
  0.0212027356029978  0.3333334326740029  0.0785672911050028   F   F   F
  0.0212027356029978  0.6666667660079995  0.0785672911050028   F   F   F
  0.7707372860939543  0.1665407568770618  0.1574634531345183   T   T   T
  0.7702568172060680  0.8334115999164879  0.1577140926670637   T   T   T
  0.2710781541572231  0.1654390080791757  0.1573196470056075   T   T   T
  0.7700443086966189  0.5012524340445381  0.1570552105133984   T   T   T
  0.2712704595544722  0.5006823289514912  0.1573720615222243   T   T   T
  0.2722736687723568  0.8325673397352844  0.1577296034908642   T   T   T
  0.0211660544706191  0.6675162586295045  0.2333427016974170   T   T   T
  0.5203549306992414  0.6666813835114169  0.2362691468370599   T   T   T
  0.0216318502393520  0.3323652027386146  0.2331478200556631   T   T   T
  0.0211333704620316  0.9989244644920205  0.2334117213368074   T   T   T
  0.5216669718274005  0.0017511904862317  0.2348381241063748   T   T   T
  0.5189652384422061  0.3333828886827988  0.2324821210864840   T   T   T
  0.7744729189685913  0.5009389365781658  0.3135797394658155   T   T   T
  0.7742197904205170  0.1709129330726924  0.3157563084672574   T   T   T
  0.2679857076736241  0.4994534383520133  0.3155769866026930   T   T   T
  0.2708878730740736  0.8300047500326855  0.3172208591148191   T   T   T
  0.2696079596836753  0.1642326899048285  0.3157890447920266   T   T   T
  0.7718361401236393  0.8360536359361745  0.3170844982820853   T   T   T
  0.0217445555297999  0.9993025008647578  0.3845867848749975   T   T   T
  0.5151661226984245  0.9978290888201116  0.3863541425738930   T   T   T
  0.0193422182892533  0.6666024497422924  0.3850147801451129   T   T   T
  0.5294012454133963  0.6842691260764084  0.3928450621911992   T   T   T
  0.0210391935413128  0.3310586371325854  0.3850434364478730   T   T   T
  0.6462027356029978  0.3333334326740029  0.0000000000000000   F   F   F
  0.1462027356029978  0.0000000993410012  0.0000000000000000   F   F   F
  0.6462027356029978  0.6666667660079995  0.0000000000000000   F   F   F
  0.8962027356029978  0.0000000993410012  0.0000000000000000   F   F   F
  0.8962027356029978  0.3333334326740029  0.0000000000000000   F   F   F
  0.1462027356029978  0.3333334326740029  0.0000000000000000   F   F   F
  0.3962027356029978  0.6666667660079995  0.0000000000000000   F   F   F
  0.3962027356029978  0.0000000993410012  0.0000000000000000   F   F   F
  0.6462027356029978  0.0000000993410012  0.0000000000000000   F   F   F
  0.3962027356029978  0.3333334326740029  0.0000000000000000   F   F   F
  0.8962027356029978  0.6666667660079995  0.0000000000000000   F   F   F
  0.1462027356029978  0.6666667660079995  0.0000000000000000   F   F   F
  0.3962027356029978  0.8333334326740029  0.0785672911050028   F   F   F
  0.6462027356029978  0.8333334326740029  0.0785672911050028   F   F   F
  0.3962027356029978  0.1666667660079995  0.0785672911050028   F   F   F
  0.1462027356029978  0.1666667660079995  0.0785672911050028   F   F   F
  0.8962027356029978  0.1666667660079995  0.0785672911050028   F   F   F
  0.8962027356029978  0.8333334326740029  0.0785672911050028   F   F   F
  0.6462027356029978  0.1666667660079995  0.0785672911050028   F   F   F
  0.1462027356029978  0.8333334326740029  0.0785672911050028   F   F   F
  0.3962027356029978  0.5000000993410012  0.0785672911050028   F   F   F
  0.1462027356029978  0.5000000993410012  0.0785672911050028   F   F   F
  0.8962027356029978  0.5000000993410012  0.0785672911050028   F   F   F
  0.6462027356029978  0.5000000993410012  0.0785672911050028   F   F   F
  0.6462932835250115  0.9984522893847938  0.1570858857382191   T   T   T
  0.3961212948142361  0.6662746299170834  0.1572238065444296   T   T   T
  0.6455101888241330  0.6697464819797148  0.1573267687313304   T   T   T
  0.8956447965865095  0.6667206714895570  0.1567704144765827   T   T   T
  0.1465780655986464  0.9994052348551179  0.1567851842825334   T   T   T
  0.8959072121795231  0.9999386404533936  0.1568983514527886   T   T   T
  0.3964939189405001  0.9979154316313696  0.1572129647170328   T   T   T
  0.1461922216897165  0.6661075129280505  0.1568441763842827   T   T   T
  0.3946459061821344  0.3342227178014241  0.1564959816901492   T   T   T
  0.8954242370885410  0.3338551812097847  0.1568686449714747   T   T   T
  0.6456914424698752  0.3341848690826055  0.1565591781380178   T   T   T
  0.1461807592555360  0.3332156265909276  0.1568694495729304   T   T   T
  0.6467761388780531  0.1656584833700876  0.2337424882952490   T   T   T
  0.6461328367802750  0.8347191231493341  0.2384510007289222   T   T   T
  0.3962846753531224  0.8295621893563307  0.2365032594073782   T   T   T
  0.8957300728474635  0.5005801765653857  0.2355044110546132   T   T   T
  0.1460891449335406  0.8322822581446729  0.2350548924348956   T   T   T
  0.6459106026633563  0.5053915641345768  0.2335906471703098   T   T   T
  0.3954909989426412  0.1643292259314890  0.2334509280522923   T   T   T
  0.8964442919717399  0.1669489454048261  0.2352408272684059   T   T   T
  0.3950454990195595  0.5023655815692507  0.2360153505190539   T   T   T
  0.1465331073101837  0.4994949204933334  0.2357038732265195   T   T   T
  0.1455295696844487  0.1654593692651289  0.2352452085739287   T   T   T
  0.8961500107734892  0.8330749272314293  0.2351005319345987   T   T   T
  0.6480172874222063  0.3427309193486963  0.3065154084879893   T   T   T
  0.8968735451751400  0.0000200101735217  0.3123108526259628   T   T   T
  0.1441296780992403  0.6653873813799933  0.3123354430686618   T   T   T
  0.3838683950230717  0.3323600262026218  0.3101626077412760   T   T   T
  0.6476482307183034  0.0088332912209168  0.3163714833374272   T   T   T
  0.6471960729604831  0.6631814325382095  0.3173324100465962   T   T   T
  0.3949735382476547  0.9959206947932628  0.3120961482040414   T   T   T
  0.8968569162764268  0.6671824285292303  0.3127945273662149   T   T   T
  0.3938623362514875  0.6626966243918062  0.3183069054386181   T   T   T
  0.8975549875419873  0.3332732691564146  0.3119484689475911   T   T   T
  0.1425068368289004  0.3325377909929088  0.3127727372187863   T   T   T
  0.1456266378716293  0.9967012461306979  0.3128011156492079   T   T   T
  0.6423272869753589  0.8466762957824301  0.3916860028222828   T   T   T
  0.1387405647751763  0.8285758411599389  0.3904507491726150   T   T   T
  0.4005548591331731  0.8415526317223012  0.3939326212548693   T   T   T
  0.4058689333981107  0.1570952774177883  0.3922899388303662   T   T   T
  0.1407872430295569  0.1642069483746837  0.3896569672000965   T   T   T
  0.9027399989923595  0.8332738566492353  0.3899255236153252   T   T   T
  0.9054825969351441  0.1641613380695972  0.3893581470140219   T   T   T
  0.6655903532534495  0.2286771795747882  0.3988496129237546   T   T   T
  0.4168071034099512  0.4986728281239152  0.4015826606579935   T   T   T
  0.8974213368562829  0.4939668994519408  0.3899339928769265   T   T   T
  0.6484882398285094  0.5778416610664578  0.4364101747391729   T   T   T
  0.1396671655637221  0.5006678217863083  0.3890814720103037   T   T   T
  0.5227471530561090  0.2606417142886031  0.3526988330734824   T   T   T
  0.6526717062158909  0.4107403232380875  0.4209203134352606   T   T   T
  0.4693034818394750  0.4242492985666360  0.4333693287491016   T   T   T
  0.4287621398656469  0.3702239907622271  0.4714218540519681   T   T   T
