CeO2-110-l3-p23:                        
   1.00000000000000     
    10.9800000000000004    0.0000000000000000    0.0000000000000000
     0.0000000000000000   11.6460486861424357    0.0000000000000000
     0.0000000000000000    0.0000000000000000   24.7050405717853714
    36    71     1     3     1
Selective dynamics
Direct
  0.7712027356029978  0.1666667660079995  0.0000000000000000   F   F   F
  0.7712027356029978  0.5000000993410012  0.0000000000000000   F   F   F
  0.2712027356029978  0.1666667660079995  0.0000000000000000   F   F   F
  0.7712027356029978  0.8333334326740029  0.0000000000000000   F   F   F
  0.2712027356029978  0.5000000993410012  0.0000000000000000   F   F   F
  0.2712027356029978  0.8333334326740029  0.0000000000000000   F   F   F
  0.5212027356029978  0.0000000993410012  0.0785672911050028   F   F   F
  0.5212027356029978  0.6666667660079995  0.0785672911050028   F   F   F
  0.0212027356029978  0.0000000993410012  0.0785672911050028   F   F   F
  0.5212027356029978  0.3333334326740029  0.0785672911050028   F   F   F
  0.0212027356029978  0.3333334326740029  0.0785672911050028   F   F   F
  0.0212027356029978  0.6666667660079995  0.0785672911050028   F   F   F
  0.7718284959441729  0.1666143754104363  0.1573273184039403   T   T   T
  0.7714138920901852  0.8325893370263712  0.1577566713304720   T   T   T
  0.2712924557719296  0.1658578902072336  0.1573996214113422   T   T   T
  0.7715065152611031  0.4999337647726702  0.1577201749075655   T   T   T
  0.2714199394377919  0.5002652371039679  0.1575840614432509   T   T   T
  0.2712346459211591  0.8324851744658867  0.1568192978215766   T   T   T
  0.0207616956830577  0.6661915740971669  0.2346830707002096   T   T   T
  0.5228214307904493  0.6652848852169798  0.2343177928995950   T   T   T
  0.0206385049173565  0.3330526067130408  0.2339987550506667   T   T   T
  0.0210615889308171  0.9987425673406528  0.2341398871134158   T   T   T
  0.5228620736542623  0.0000988663529009  0.2325489873494264   T   T   T
  0.5207353789747972  0.3323258073411455  0.2328110086903551   T   T   T
  0.7675777375026365  0.4996578235640234  0.3175809329210358   T   T   T
  0.7703257041440051  0.1667093242166077  0.3159645090696647   T   T   T
  0.2719449900692680  0.4975424255558689  0.3160862960778932   T   T   T
  0.2775113887961483  0.8329322885745575  0.3129519943814058   T   T   T
  0.2715220975630839  0.1647410708512659  0.3161045129757641   T   T   T
  0.7710378946955894  0.8318554344254121  0.3178302742835177   T   T   T
  0.0177450149981317  0.0064161121847912  0.3861089751138061   T   T   T
  0.5221996510405834  0.0011590588140053  0.3834073972565589   T   T   T
  0.0188399205985031  0.6578295984504642  0.3866956156781808   T   T   T
  0.5179128473698210  0.6652891088187426  0.3882178491301533   T   T   T
  0.0199997838125712  0.3326366305446936  0.3849722017798681   T   T   T
  0.5197722113688991  0.3306381088186720  0.3836400674494222   T   T   T
  0.6462027356029978  0.3333334326740029  0.0000000000000000   F   F   F
  0.1462027356029978  0.0000000993410012  0.0000000000000000   F   F   F
  0.6462027356029978  0.6666667660079995  0.0000000000000000   F   F   F
  0.8962027356029978  0.0000000993410012  0.0000000000000000   F   F   F
  0.8962027356029978  0.3333334326740029  0.0000000000000000   F   F   F
  0.1462027356029978  0.3333334326740029  0.0000000000000000   F   F   F
  0.3962027356029978  0.6666667660079995  0.0000000000000000   F   F   F
  0.3962027356029978  0.0000000993410012  0.0000000000000000   F   F   F
  0.6462027356029978  0.0000000993410012  0.0000000000000000   F   F   F
  0.3962027356029978  0.3333334326740029  0.0000000000000000   F   F   F
  0.8962027356029978  0.6666667660079995  0.0000000000000000   F   F   F
  0.1462027356029978  0.6666667660079995  0.0000000000000000   F   F   F
  0.3962027356029978  0.8333334326740029  0.0785672911050028   F   F   F
  0.6462027356029978  0.8333334326740029  0.0785672911050028   F   F   F
  0.3962027356029978  0.1666667660079995  0.0785672911050028   F   F   F
  0.1462027356029978  0.1666667660079995  0.0785672911050028   F   F   F
  0.8962027356029978  0.1666667660079995  0.0785672911050028   F   F   F
  0.8962027356029978  0.8333334326740029  0.0785672911050028   F   F   F
  0.6462027356029978  0.1666667660079995  0.0785672911050028   F   F   F
  0.1462027356029978  0.8333334326740029  0.0785672911050028   F   F   F
  0.3962027356029978  0.5000000993410012  0.0785672911050028   F   F   F
  0.1462027356029978  0.5000000993410012  0.0785672911050028   F   F   F
  0.8962027356029978  0.5000000993410012  0.0785672911050028   F   F   F
  0.6462027356029978  0.5000000993410012  0.0785672911050028   F   F   F
  0.6474929529604601  0.9997942024953694  0.1563079482225703   T   T   T
  0.3961889203325797  0.6663941911426973  0.1568108039075731   T   T   T
  0.6469524199560783  0.6662261524726876  0.1568309627282824   T   T   T
  0.8965358048014554  0.6669617606316197  0.1573856141711870   T   T   T
  0.1461957700000963  0.9995861307501528  0.1568345908287664   T   T   T
  0.8965999154542094  0.9990605599052254  0.1574181642940803   T   T   T
  0.3960604241338668  0.9981800322351752  0.1562441683980770   T   T   T
  0.1461174968043552  0.6661306166125400  0.1570510092042241   T   T   T
  0.3954263269669103  0.3340167749668188  0.1561864769968465   T   T   T
  0.8963427196587749  0.3331821184659703  0.1568223637304414   T   T   T
  0.6469797383064063  0.3331178117671155  0.1564967148938963   T   T   T
  0.1462113885140676  0.3329211303858108  0.1577743605359827   T   T   T
  0.6468761922053753  0.1661198674943193  0.2346125017007647   T   T   T
  0.6469302908163324  0.8326285604105577  0.2348432061627268   T   T   T
  0.3970567133007096  0.8318181127200440  0.2351449651874053   T   T   T
  0.8966749474243685  0.4993188719381591  0.2352919051192126   T   T   T
  0.1476900106492199  0.8329744421917322  0.2347582894233216   T   T   T
  0.6460134599355337  0.4996368566531765  0.2350854102553822   T   T   T
  0.3970968583877529  0.1656125807967299  0.2324853035078566   T   T   T
  0.8970329241001087  0.1668300394461572  0.2350808895377888   T   T   T
  0.3964848698141624  0.4996884528309783  0.2349776454806882   T   T   T
  0.1458165109213692  0.5016381903238492  0.2363913809478566   T   T   T
  0.1461388415246271  0.1626089247825525  0.2365094705509783   T   T   T
  0.8974292164087114  0.8324518460495707  0.2366131510807791   T   T   T
  0.6457903758522957  0.3322477573641076  0.3117761037753802   T   T   T
  0.8966164939727329  0.0027874742823930  0.3134405180227478   T   T   T
  0.1448039745126311  0.6730199930609787  0.3159636133477919   T   T   T
  0.3951206508441326  0.3263899177206713  0.3095980982628455   T   T   T
  0.6476150924084558  0.9992216043981361  0.3116865247395090   T   T   T
  0.6466381558813868  0.6666586596009851  0.3128499144018135   T   T   T
  0.3970743458322753  0.0031634501967615  0.3092631679234187   T   T   T
  0.8956979593635273  0.6628115572650319  0.3142104758551815   T   T   T
  0.3956565860453399  0.6653992448491198  0.3133916043669522   T   T   T
  0.8958903390162753  0.3329328993971944  0.3133956544599664   T   T   T
  0.1449328983885817  0.3311638569072336  0.3127898248081361   T   T   T
  0.1451882196112269  0.9910446395431809  0.3164166620721677   T   T   T
  0.6414957725099409  0.8342383891098395  0.3907122554409398   T   T   T
  0.1520184902492354  0.8259125151215988  0.4074004235596592   T   T   T
  0.4016130692478427  0.8456203889734875  0.3851726309051210   T   T   T
  0.4006347601132301  0.1639126347020034  0.3895842263893996   T   T   T
  0.1374390072657215  0.1648427663598669  0.3905241029828547   T   T   T
  0.9137893788214219  0.8344076465615448  0.3886207970301612   T   T   T
  0.9010259629345810  0.1664754976013650  0.3919892298616938   T   T   T
  0.6402722950459491  0.1653623308026854  0.3893820810093040   T   T   T
  0.9007441550989232  0.4975353338576464  0.3927439229360713   T   T   T
  0.6385098613748120  0.4983510499352869  0.3902288485756019   T   T   T
  0.1368620498403701  0.4970812918868915  0.3894671548631796   T   T   T
  0.2502184905599469  0.7686676848113076  0.4669646330029589   T   T   T
  0.4014626096965083  0.4827149638670954  0.3849513010363576   T   T   T
  0.3773781120450871  0.6556052340298369  0.4520706227524802   T   T   T
  0.3301935548887152  0.7049146130304601  0.5785442506792219   T   T   T
  0.2973776093557108  0.7328283155498785  0.5357855934255581   T   T   T
