CeO2-110-l3-p23:                        
   1.00000000000000     
    10.9800000000000004    0.0000000000000000    0.0000000000000000
     0.0000000000000000   11.6460486861424357    0.0000000000000000
     0.0000000000000000    0.0000000000000000   24.7050405717853714
   Ce   O    Pt   O    C 
    36    71     1     3     1
Selective dynamics
Direct
  0.7712027356029978  0.1666667660079995  0.0000000000000000   F   F   F
  0.7712027356029978  0.5000000993410012  0.0000000000000000   F   F   F
  0.2712027356029978  0.1666667660079995  0.0000000000000000   F   F   F
  0.7712027356029978  0.8333334326740029  0.0000000000000000   F   F   F
  0.2712027356029978  0.5000000993410012  0.0000000000000000   F   F   F
  0.2712027356029978  0.8333334326740029  0.0000000000000000   F   F   F
  0.5212027356029978  0.0000000993410012  0.0785672911050028   F   F   F
  0.5212027356029978  0.6666667660079995  0.0785672911050028   F   F   F
  0.0212027356029978  0.0000000993410012  0.0785672911050028   F   F   F
  0.5212027356029978  0.3333334326740029  0.0785672911050028   F   F   F
  0.0212027356029978  0.3333334326740029  0.0785672911050028   F   F   F
  0.0212027356029978  0.6666667660079995  0.0785672911050028   F   F   F
  0.7718319271666627  0.1666127771226795  0.1573300323080454   T   T   T
  0.7714147586807536  0.8325731460687237  0.1577528422021353   T   T   T
  0.2712993232783091  0.1658619960586571  0.1573952740413457   T   T   T
  0.7715083067789645  0.4999450768234545  0.1577232058454490   T   T   T
  0.2714272826409370  0.5002670802301756  0.1575826446992365   T   T   T
  0.2712421238491389  0.8324711144962622  0.1568268266237158   T   T   T
  0.0207689428388396  0.6661867226285159  0.2346849331044912   T   T   T
  0.5228254312836772  0.6652806522967659  0.2343273332631912   T   T   T
  0.0206458779486458  0.3330545459169100  0.2339994594709430   T   T   T
  0.0210709780931703  0.9987388172782790  0.2341430468757613   T   T   T
  0.5228668585211874  0.0000895958226337  0.2325517722140938   T   T   T
  0.5207380244050781  0.3323333014184454  0.2328122796190659   T   T   T
  0.7675729368778980  0.4996623789951332  0.3175802927317494   T   T   T
  0.7703220594026096  0.1667083547524352  0.3159619272046845   T   T   T
  0.2719581605594561  0.4975561504590651  0.3160788985830338   T   T   T
  0.2775299518108319  0.8329151792370905  0.3129357072440578   T   T   T
  0.2715222478290484  0.1647301045352927  0.3161011788352731   T   T   T
  0.7710250358502155  0.8318440482449262  0.3178256622647582   T   T   T
  0.0177526653425759  0.0063994073996313  0.3861158080764134   T   T   T
  0.5221985301213068  0.0011494393942081  0.3834050696489046   T   T   T
  0.0188141025126587  0.6578271172291429  0.3866963379758766   T   T   T
  0.5179398502112691  0.6652845418659850  0.3882383749588851   T   T   T
  0.0200037730915870  0.3326343477163433  0.3849671562752947   T   T   T
  0.5197697515027239  0.3306584164160188  0.3836282118594180   T   T   T
  0.6462027356029978  0.3333334326740029  0.0000000000000000   F   F   F
  0.1462027356029978  0.0000000993410012  0.0000000000000000   F   F   F
  0.6462027356029978  0.6666667660079995  0.0000000000000000   F   F   F
  0.8962027356029978  0.0000000993410012  0.0000000000000000   F   F   F
  0.8962027356029978  0.3333334326740029  0.0000000000000000   F   F   F
  0.1462027356029978  0.3333334326740029  0.0000000000000000   F   F   F
  0.3962027356029978  0.6666667660079995  0.0000000000000000   F   F   F
  0.3962027356029978  0.0000000993410012  0.0000000000000000   F   F   F
  0.6462027356029978  0.0000000993410012  0.0000000000000000   F   F   F
  0.3962027356029978  0.3333334326740029  0.0000000000000000   F   F   F
  0.8962027356029978  0.6666667660079995  0.0000000000000000   F   F   F
  0.1462027356029978  0.6666667660079995  0.0000000000000000   F   F   F
  0.3962027356029978  0.8333334326740029  0.0785672911050028   F   F   F
  0.6462027356029978  0.8333334326740029  0.0785672911050028   F   F   F
  0.3962027356029978  0.1666667660079995  0.0785672911050028   F   F   F
  0.1462027356029978  0.1666667660079995  0.0785672911050028   F   F   F
  0.8962027356029978  0.1666667660079995  0.0785672911050028   F   F   F
  0.8962027356029978  0.8333334326740029  0.0785672911050028   F   F   F
  0.6462027356029978  0.1666667660079995  0.0785672911050028   F   F   F
  0.1462027356029978  0.8333334326740029  0.0785672911050028   F   F   F
  0.3962027356029978  0.5000000993410012  0.0785672911050028   F   F   F
  0.1462027356029978  0.5000000993410012  0.0785672911050028   F   F   F
  0.8962027356029978  0.5000000993410012  0.0785672911050028   F   F   F
  0.6462027356029978  0.5000000993410012  0.0785672911050028   F   F   F
  0.6474867023371563  0.9997887482621544  0.1563065906228397   T   T   T
  0.3961863075633024  0.6663939325980185  0.1568134599726616   T   T   T
  0.6469488438022423  0.6662256375660772  0.1568317467864364   T   T   T
  0.8965346613457269  0.6669596293309799  0.1573857785980773   T   T   T
  0.1461963098231390  0.9995821136338878  0.1568342788070912   T   T   T
  0.8965989910345807  0.9990570128515888  0.1574154811579594   T   T   T
  0.3960572452962745  0.9981757871012238  0.1562450049712495   T   T   T
  0.1461188035849422  0.6661295099158221  0.1570527810582851   T   T   T
  0.3954223655217147  0.3340173143604472  0.1561866130456764   T   T   T
  0.8963422140774909  0.3331830900686829  0.1568213006785007   T   T   T
  0.6469750122665483  0.3331200192033171  0.1564956688707343   T   T   T
  0.1462124110425835  0.3329220158393613  0.1577738661842412   T   T   T
  0.6468701560734808  0.1661184013609266  0.2346098832620268   T   T   T
  0.6469216367690881  0.8326171200027870  0.2348436339714267   T   T   T
  0.3970550293426364  0.8318133612487244  0.2351463011951322   T   T   T
  0.8966728868361490  0.4993233166513799  0.2352918385317251   T   T   T
  0.1476940055775840  0.8329683195331118  0.2347589467735962   T   T   T
  0.6460057481370015  0.4996447008395903  0.2350863568590723   T   T   T
  0.3970937088285550  0.1656096875731423  0.2324859667402178   T   T   T
  0.8970348135799318  0.1668298620393141  0.2350789186707963   T   T   T
  0.3964861105202133  0.4996917273145950  0.2349776100188065   T   T   T
  0.1458189168718297  0.5016400264543045  0.2363901277222626   T   T   T
  0.1461416994634831  0.1626079431245719  0.2365073098614799   T   T   T
  0.8974283822466964  0.8324409602468799  0.2366129344579227   T   T   T
  0.6457906004149483  0.3322537548510376  0.3117752697930889   T   T   T
  0.8966240052300023  0.0027796041924120  0.3134409500982915   T   T   T
  0.1448098696456550  0.6730258481966789  0.3159681952361790   T   T   T
  0.3951270090506768  0.3263896042557798  0.3095962423423229   T   T   T
  0.6476115129452316  0.9992113726060550  0.3116838670865988   T   T   T
  0.6466362118526527  0.6666601995038433  0.3128480712899802   T   T   T
  0.3970754725636857  0.0031511558753185  0.3092633130705672   T   T   T
  0.8956938580058864  0.6628073701676790  0.3142101557186206   T   T   T
  0.3956607970764029  0.6654074962901395  0.3133927657833371   T   T   T
  0.8958918177955870  0.3329372024825938  0.3133967023602939   T   T   T
  0.1449347128328551  0.3311640435576677  0.3127895863910988   T   T   T
  0.1451916975644478  0.9910382934913868  0.3164180274310029   T   T   T
  0.6414900481685214  0.8342365564528804  0.3907066000549125   T   T   T
  0.1519942998380694  0.8259253407218961  0.4074115630594168   T   T   T
  0.4015907648401391  0.8456138573057260  0.3851706595441646   T   T   T
  0.4006372526137652  0.1639075105294470  0.3895824528644319   T   T   T
  0.1374358876305294  0.1648384086584530  0.3905238446543886   T   T   T
  0.9137790449345018  0.8343960872858824  0.3886177698082685   T   T   T
  0.9010328482349914  0.1664727824659979  0.3919903029089977   T   T   T
  0.6402754417612286  0.1653609343515315  0.3893832845460239   T   T   T
  0.9007425897886250  0.4975430652864354  0.3927403548589267   T   T   T
  0.6385163729343435  0.4983514798311794  0.3902223751062930   T   T   T
  0.1368679420380592  0.4970889675542945  0.3894682196445243   T   T   T
  0.2502578831363481  0.7686401419006670  0.4669470688984821   T   T   T
  0.4014585088060139  0.4827263164573017  0.3849431062216523   T   T   T
  0.3776670081085813  0.6557445930131907  0.4521698829298912   T   T   T
  0.3299918571548998  0.7050587810598749  0.5785814510117619   T   T   T
  0.2972914479958074  0.7328811192132696  0.5357878823325439   T   T   T
 
  0.00000000E+00  0.00000000E+00  0.00000000E+00
  0.00000000E+00  0.00000000E+00  0.00000000E+00
  0.00000000E+00  0.00000000E+00  0.00000000E+00
  0.00000000E+00  0.00000000E+00  0.00000000E+00
  0.00000000E+00  0.00000000E+00  0.00000000E+00
  0.00000000E+00  0.00000000E+00  0.00000000E+00
  0.00000000E+00  0.00000000E+00  0.00000000E+00
  0.00000000E+00  0.00000000E+00  0.00000000E+00
  0.00000000E+00  0.00000000E+00  0.00000000E+00
  0.00000000E+00  0.00000000E+00  0.00000000E+00
  0.00000000E+00  0.00000000E+00  0.00000000E+00
  0.00000000E+00  0.00000000E+00  0.00000000E+00
  0.00000000E+00  0.00000000E+00  0.00000000E+00
  0.00000000E+00  0.00000000E+00  0.00000000E+00
  0.00000000E+00  0.00000000E+00  0.00000000E+00
  0.00000000E+00  0.00000000E+00  0.00000000E+00
  0.00000000E+00  0.00000000E+00  0.00000000E+00
  0.00000000E+00  0.00000000E+00  0.00000000E+00
  0.00000000E+00  0.00000000E+00  0.00000000E+00
  0.00000000E+00  0.00000000E+00  0.00000000E+00
  0.00000000E+00  0.00000000E+00  0.00000000E+00
  0.00000000E+00  0.00000000E+00  0.00000000E+00
  0.00000000E+00  0.00000000E+00  0.00000000E+00
  0.00000000E+00  0.00000000E+00  0.00000000E+00
  0.00000000E+00  0.00000000E+00  0.00000000E+00
  0.00000000E+00  0.00000000E+00  0.00000000E+00
  0.00000000E+00  0.00000000E+00  0.00000000E+00
  0.00000000E+00  0.00000000E+00  0.00000000E+00
  0.00000000E+00  0.00000000E+00  0.00000000E+00
  0.00000000E+00  0.00000000E+00  0.00000000E+00
  0.00000000E+00  0.00000000E+00  0.00000000E+00
  0.00000000E+00  0.00000000E+00  0.00000000E+00
  0.00000000E+00  0.00000000E+00  0.00000000E+00
  0.00000000E+00  0.00000000E+00  0.00000000E+00
  0.00000000E+00  0.00000000E+00  0.00000000E+00
  0.00000000E+00  0.00000000E+00  0.00000000E+00
  0.00000000E+00  0.00000000E+00  0.00000000E+00
  0.00000000E+00  0.00000000E+00  0.00000000E+00
  0.00000000E+00  0.00000000E+00  0.00000000E+00
  0.00000000E+00  0.00000000E+00  0.00000000E+00
  0.00000000E+00  0.00000000E+00  0.00000000E+00
  0.00000000E+00  0.00000000E+00  0.00000000E+00
  0.00000000E+00  0.00000000E+00  0.00000000E+00
  0.00000000E+00  0.00000000E+00  0.00000000E+00
  0.00000000E+00  0.00000000E+00  0.00000000E+00
  0.00000000E+00  0.00000000E+00  0.00000000E+00
  0.00000000E+00  0.00000000E+00  0.00000000E+00
  0.00000000E+00  0.00000000E+00  0.00000000E+00
  0.00000000E+00  0.00000000E+00  0.00000000E+00
  0.00000000E+00  0.00000000E+00  0.00000000E+00
  0.00000000E+00  0.00000000E+00  0.00000000E+00
  0.00000000E+00  0.00000000E+00  0.00000000E+00
  0.00000000E+00  0.00000000E+00  0.00000000E+00
  0.00000000E+00  0.00000000E+00  0.00000000E+00
  0.00000000E+00  0.00000000E+00  0.00000000E+00
  0.00000000E+00  0.00000000E+00  0.00000000E+00
  0.00000000E+00  0.00000000E+00  0.00000000E+00
  0.00000000E+00  0.00000000E+00  0.00000000E+00
  0.00000000E+00  0.00000000E+00  0.00000000E+00
  0.00000000E+00  0.00000000E+00  0.00000000E+00
  0.00000000E+00  0.00000000E+00  0.00000000E+00
  0.00000000E+00  0.00000000E+00  0.00000000E+00
  0.00000000E+00  0.00000000E+00  0.00000000E+00
  0.00000000E+00  0.00000000E+00  0.00000000E+00
  0.00000000E+00  0.00000000E+00  0.00000000E+00
  0.00000000E+00  0.00000000E+00  0.00000000E+00
  0.00000000E+00  0.00000000E+00  0.00000000E+00
  0.00000000E+00  0.00000000E+00  0.00000000E+00
  0.00000000E+00  0.00000000E+00  0.00000000E+00
  0.00000000E+00  0.00000000E+00  0.00000000E+00
  0.00000000E+00  0.00000000E+00  0.00000000E+00
  0.00000000E+00  0.00000000E+00  0.00000000E+00
  0.00000000E+00  0.00000000E+00  0.00000000E+00
  0.00000000E+00  0.00000000E+00  0.00000000E+00
  0.00000000E+00  0.00000000E+00  0.00000000E+00
  0.00000000E+00  0.00000000E+00  0.00000000E+00
  0.00000000E+00  0.00000000E+00  0.00000000E+00
  0.00000000E+00  0.00000000E+00  0.00000000E+00
  0.00000000E+00  0.00000000E+00  0.00000000E+00
  0.00000000E+00  0.00000000E+00  0.00000000E+00
  0.00000000E+00  0.00000000E+00  0.00000000E+00
  0.00000000E+00  0.00000000E+00  0.00000000E+00
  0.00000000E+00  0.00000000E+00  0.00000000E+00
  0.00000000E+00  0.00000000E+00  0.00000000E+00
  0.00000000E+00  0.00000000E+00  0.00000000E+00
  0.00000000E+00  0.00000000E+00  0.00000000E+00
  0.00000000E+00  0.00000000E+00  0.00000000E+00
  0.00000000E+00  0.00000000E+00  0.00000000E+00
  0.00000000E+00  0.00000000E+00  0.00000000E+00
  0.00000000E+00  0.00000000E+00  0.00000000E+00
  0.00000000E+00  0.00000000E+00  0.00000000E+00
  0.00000000E+00  0.00000000E+00  0.00000000E+00
  0.00000000E+00  0.00000000E+00  0.00000000E+00
  0.00000000E+00  0.00000000E+00  0.00000000E+00
  0.00000000E+00  0.00000000E+00  0.00000000E+00
  0.00000000E+00  0.00000000E+00  0.00000000E+00
  0.00000000E+00  0.00000000E+00  0.00000000E+00
  0.00000000E+00  0.00000000E+00  0.00000000E+00
  0.00000000E+00  0.00000000E+00  0.00000000E+00
  0.00000000E+00  0.00000000E+00  0.00000000E+00
  0.00000000E+00  0.00000000E+00  0.00000000E+00
  0.00000000E+00  0.00000000E+00  0.00000000E+00
  0.00000000E+00  0.00000000E+00  0.00000000E+00
  0.00000000E+00  0.00000000E+00  0.00000000E+00
  0.00000000E+00  0.00000000E+00  0.00000000E+00
  0.00000000E+00  0.00000000E+00  0.00000000E+00
  0.00000000E+00  0.00000000E+00  0.00000000E+00
  0.00000000E+00  0.00000000E+00  0.00000000E+00
  0.00000000E+00  0.00000000E+00  0.00000000E+00
  0.00000000E+00  0.00000000E+00  0.00000000E+00
  0.00000000E+00  0.00000000E+00  0.00000000E+00
  0.00000000E+00  0.00000000E+00  0.00000000E+00
