CeO2-110-l3-p23:                        
   1.00000000000000     
    10.9800000000000004    0.0000000000000000    0.0000000000000000
     0.0000000000000000   11.6460486861424357    0.0000000000000000
     0.0000000000000000    0.0000000000000000   24.7050405717853714
   Ce   O    Pt
    35    71     2
Selective dynamics
Direct
  0.7712027356029978  0.1666667660079995  0.0000000000000000   F   F   F
  0.7712027356029978  0.5000000993410012  0.0000000000000000   F   F   F
  0.2712027356029978  0.1666667660079995  0.0000000000000000   F   F   F
  0.7712027356029978  0.8333334326740029  0.0000000000000000   F   F   F
  0.2712027356029978  0.5000000993410012  0.0000000000000000   F   F   F
  0.2712027356029978  0.8333334326740029  0.0000000000000000   F   F   F
  0.5212027356029978  0.0000000993410012  0.0785672911050028   F   F   F
  0.5212027356029978  0.6666667660079995  0.0785672911050028   F   F   F
  0.0212027356029978  0.0000000993410012  0.0785672911050028   F   F   F
  0.5212027356029978  0.3333334326740029  0.0785672911050028   F   F   F
  0.0212027356029978  0.3333334326740029  0.0785672911050028   F   F   F
  0.0212027356029978  0.6666667660079995  0.0785672911050028   F   F   F
  0.7707082223295032  0.1673084852405324  0.1574389217396117   T   T   T
  0.7700921780438392  0.8333704309745045  0.1575167695579367   T   T   T
  0.2704304380700933  0.1661057367032654  0.1575058422918048   T   T   T
  0.7708134168782124  0.5010481180130739  0.1567914145839922   T   T   T
  0.2707753662799206  0.5004595979582902  0.1571158133918473   T   T   T
  0.2713597762171247  0.8329200027449772  0.1577756813364246   T   T   T
  0.0213963031425664  0.6671841886798688  0.2340643406325995   T   T   T
  0.5195594519487017  0.6673858663850964  0.2356522582722604   T   T   T
  0.0204940927951043  0.3329604533085160  0.2349876749871953   T   T   T
  0.0239180407086934  0.9982425893143230  0.2334544024100325   T   T   T
  0.5230882796336545  0.0023858176167550  0.2346206978371441   T   T   T
  0.5169675467213608  0.3336855841974611  0.2325327179062882   T   T   T
  0.7652974667305585  0.5019782000775024  0.3115859086754966   T   T   T
  0.7777661188369009  0.1695256197930490  0.3152038519160172   T   T   T
  0.2610663051732871  0.4991855163857579  0.3140299900203942   T   T   T
  0.2808269215978498  0.8326680632960048  0.3187857007571040   T   T   T
  0.2677124429814342  0.1644284665734759  0.3169021578978573   T   T   T
  0.7758399659288600  0.8371269512082335  0.3157935097328917   T   T   T
  0.0270563984435697  0.9997370098016205  0.3852734081181808   T   T   T
  0.5255459353856438  0.9974519135022888  0.3873532312034698   T   T   T
  0.0313750196599258  0.6815103382905789  0.3871774858306054   T   T   T
  0.5433552030078559  0.6814619505129400  0.3913196494670714   T   T   T
  0.0196151834037295  0.3216127215136879  0.3913289259610693   T   T   T
  0.6462027356029978  0.3333334326740029  0.0000000000000000   F   F   F
  0.1462027356029978  0.0000000993410012  0.0000000000000000   F   F   F
  0.6462027356029978  0.6666667660079995  0.0000000000000000   F   F   F
  0.8962027356029978  0.0000000993410012  0.0000000000000000   F   F   F
  0.8962027356029978  0.3333334326740029  0.0000000000000000   F   F   F
  0.1462027356029978  0.3333334326740029  0.0000000000000000   F   F   F
  0.3962027356029978  0.6666667660079995  0.0000000000000000   F   F   F
  0.3962027356029978  0.0000000993410012  0.0000000000000000   F   F   F
  0.6462027356029978  0.0000000993410012  0.0000000000000000   F   F   F
  0.3962027356029978  0.3333334326740029  0.0000000000000000   F   F   F
  0.8962027356029978  0.6666667660079995  0.0000000000000000   F   F   F
  0.1462027356029978  0.6666667660079995  0.0000000000000000   F   F   F
  0.3962027356029978  0.8333334326740029  0.0785672911050028   F   F   F
  0.6462027356029978  0.8333334326740029  0.0785672911050028   F   F   F
  0.3962027356029978  0.1666667660079995  0.0785672911050028   F   F   F
  0.1462027356029978  0.1666667660079995  0.0785672911050028   F   F   F
  0.8962027356029978  0.1666667660079995  0.0785672911050028   F   F   F
  0.8962027356029978  0.8333334326740029  0.0785672911050028   F   F   F
  0.6462027356029978  0.1666667660079995  0.0785672911050028   F   F   F
  0.1462027356029978  0.8333334326740029  0.0785672911050028   F   F   F
  0.3962027356029978  0.5000000993410012  0.0785672911050028   F   F   F
  0.1462027356029978  0.5000000993410012  0.0785672911050028   F   F   F
  0.8962027356029978  0.5000000993410012  0.0785672911050028   F   F   F
  0.6462027356029978  0.5000000993410012  0.0785672911050028   F   F   F
  0.6468376798939701  0.0003094184386541  0.1562634491053529   T   T   T
  0.3955850366543103  0.6679518323210303  0.1570794109900433   T   T   T
  0.6453242814517779  0.6686026983200080  0.1575026849573575   T   T   T
  0.8958072422011369  0.6677210093369155  0.1564768202844888   T   T   T
  0.1469609216920134  0.0000688984480632  0.1559553402370639   T   T   T
  0.8963127410304779  0.9993005650022297  0.1580190593358566   T   T   T
  0.3967789042092065  0.9991218822121581  0.1580911266762826   T   T   T
  0.1460089291520816  0.6661578026166026  0.1569970518447263   T   T   T
  0.3942665546705300  0.3327656439775453  0.1560296083184554   T   T   T
  0.8951565178925307  0.3334059244534942  0.1569068325841059   T   T   T
  0.6451453598801677  0.3342377073795291  0.1567537499291447   T   T   T
  0.1458100061644387  0.3328835493515996  0.1573782490600948   T   T   T
  0.6462515909512234  0.1660800030422251  0.2339523217296744   T   T   T
  0.6467911573021183  0.8385237818617242  0.2357688425196756   T   T   T
  0.3971492602743396  0.8296735230432262  0.2379775836697036   T   T   T
  0.8934690858809518  0.5022742838953249  0.2342058087830452   T   T   T
  0.1466891798559331  0.8344766742281990  0.2335219881929973   T   T   T
  0.6443229733234119  0.5031725988023936  0.2342979896293969   T   T   T
  0.3943479397057530  0.1685578986348091  0.2357539067016319   T   T   T
  0.8962117011504418  0.1696563554714956  0.2364176922462420   T   T   T
  0.3958990018141932  0.5006560888020317  0.2337914172389333   T   T   T
  0.1414261733703697  0.5000428346567602  0.2348722666468746   T   T   T
  0.1454840464081641  0.1632794160232862  0.2350334639276710   T   T   T
  0.8966266948221318  0.8279415838477817  0.2367614931028967   T   T   T
  0.6421960129460800  0.3392643042053223  0.3074151795612323   T   T   T
  0.9007642204688722  0.9983191079832068  0.3105707721091875   T   T   T
  0.1461772621853541  0.6780966872418617  0.3128637453532903   T   T   T
  0.3935772692701320  0.3319868166321385  0.3181314022217592   T   T   T
  0.6507869049757744  0.0068938568076220  0.3147230062810991   T   T   T
  0.6519793574501520  0.6730813956308381  0.3115973465582229   T   T   T
  0.4008214805408485  0.0004479460410209  0.3131820459602750   T   T   T
  0.9001962829442363  0.6562832327624619  0.3191877533018683   T   T   T
  0.4015508249903732  0.6611324945623451  0.3217552701028055   T   T   T
  0.8980574298876718  0.3425777398409693  0.3149754061389842   T   T   T
  0.1418747431077776  0.3232589579641854  0.3139209736649491   T   T   T
  0.1504579004661082  0.9958928405070679  0.3129869407686670   T   T   T
  0.6544347946329907  0.8462796915132671  0.3925137166371471   T   T   T
  0.1501539320718734  0.8337170631919975  0.3947392922604749   T   T   T
  0.4091336870782385  0.8466843720064290  0.3944330290182521   T   T   T
  0.4068647035146213  0.1580946358329811  0.3955172939668827   T   T   T
  0.1462574930981404  0.1575564943596817  0.3937043435132992   T   T   T
  0.9100378027657143  0.8364683251068783  0.3903134761637830   T   T   T
  0.9078822432968536  0.1540891267919093  0.3872240278539820   T   T   T
  0.6640842705071961  0.1798995258641796  0.4011020488711168   T   T   T
  0.8754413034050899  0.3907694095700194  0.4387175221882416   T   T   T
  0.6872400987500171  0.5225664832597232  0.3975275916216319   T   T   T
  0.1126463744795956  0.5080189347519735  0.3924496090626306   T   T   T
  0.5275387451507143  0.2591725789813495  0.3600417894485233   T   T   T
  0.7090528213148986  0.3529095454397364  0.4118056449959795   T   T   T
 
  0.00000000E+00  0.00000000E+00  0.00000000E+00
  0.00000000E+00  0.00000000E+00  0.00000000E+00
  0.00000000E+00  0.00000000E+00  0.00000000E+00
  0.00000000E+00  0.00000000E+00  0.00000000E+00
  0.00000000E+00  0.00000000E+00  0.00000000E+00
  0.00000000E+00  0.00000000E+00  0.00000000E+00
  0.00000000E+00  0.00000000E+00  0.00000000E+00
  0.00000000E+00  0.00000000E+00  0.00000000E+00
  0.00000000E+00  0.00000000E+00  0.00000000E+00
  0.00000000E+00  0.00000000E+00  0.00000000E+00
  0.00000000E+00  0.00000000E+00  0.00000000E+00
  0.00000000E+00  0.00000000E+00  0.00000000E+00
  0.00000000E+00  0.00000000E+00  0.00000000E+00
  0.00000000E+00  0.00000000E+00  0.00000000E+00
  0.00000000E+00  0.00000000E+00  0.00000000E+00
  0.00000000E+00  0.00000000E+00  0.00000000E+00
  0.00000000E+00  0.00000000E+00  0.00000000E+00
  0.00000000E+00  0.00000000E+00  0.00000000E+00
  0.00000000E+00  0.00000000E+00  0.00000000E+00
  0.00000000E+00  0.00000000E+00  0.00000000E+00
  0.00000000E+00  0.00000000E+00  0.00000000E+00
  0.00000000E+00  0.00000000E+00  0.00000000E+00
  0.00000000E+00  0.00000000E+00  0.00000000E+00
  0.00000000E+00  0.00000000E+00  0.00000000E+00
  0.00000000E+00  0.00000000E+00  0.00000000E+00
  0.00000000E+00  0.00000000E+00  0.00000000E+00
  0.00000000E+00  0.00000000E+00  0.00000000E+00
  0.00000000E+00  0.00000000E+00  0.00000000E+00
  0.00000000E+00  0.00000000E+00  0.00000000E+00
  0.00000000E+00  0.00000000E+00  0.00000000E+00
  0.00000000E+00  0.00000000E+00  0.00000000E+00
  0.00000000E+00  0.00000000E+00  0.00000000E+00
  0.00000000E+00  0.00000000E+00  0.00000000E+00
  0.00000000E+00  0.00000000E+00  0.00000000E+00
  0.00000000E+00  0.00000000E+00  0.00000000E+00
  0.00000000E+00  0.00000000E+00  0.00000000E+00
  0.00000000E+00  0.00000000E+00  0.00000000E+00
  0.00000000E+00  0.00000000E+00  0.00000000E+00
  0.00000000E+00  0.00000000E+00  0.00000000E+00
  0.00000000E+00  0.00000000E+00  0.00000000E+00
  0.00000000E+00  0.00000000E+00  0.00000000E+00
  0.00000000E+00  0.00000000E+00  0.00000000E+00
  0.00000000E+00  0.00000000E+00  0.00000000E+00
  0.00000000E+00  0.00000000E+00  0.00000000E+00
  0.00000000E+00  0.00000000E+00  0.00000000E+00
  0.00000000E+00  0.00000000E+00  0.00000000E+00
  0.00000000E+00  0.00000000E+00  0.00000000E+00
  0.00000000E+00  0.00000000E+00  0.00000000E+00
  0.00000000E+00  0.00000000E+00  0.00000000E+00
  0.00000000E+00  0.00000000E+00  0.00000000E+00
  0.00000000E+00  0.00000000E+00  0.00000000E+00
  0.00000000E+00  0.00000000E+00  0.00000000E+00
  0.00000000E+00  0.00000000E+00  0.00000000E+00
  0.00000000E+00  0.00000000E+00  0.00000000E+00
  0.00000000E+00  0.00000000E+00  0.00000000E+00
  0.00000000E+00  0.00000000E+00  0.00000000E+00
  0.00000000E+00  0.00000000E+00  0.00000000E+00
  0.00000000E+00  0.00000000E+00  0.00000000E+00
  0.00000000E+00  0.00000000E+00  0.00000000E+00
  0.00000000E+00  0.00000000E+00  0.00000000E+00
  0.00000000E+00  0.00000000E+00  0.00000000E+00
  0.00000000E+00  0.00000000E+00  0.00000000E+00
  0.00000000E+00  0.00000000E+00  0.00000000E+00
  0.00000000E+00  0.00000000E+00  0.00000000E+00
  0.00000000E+00  0.00000000E+00  0.00000000E+00
  0.00000000E+00  0.00000000E+00  0.00000000E+00
  0.00000000E+00  0.00000000E+00  0.00000000E+00
  0.00000000E+00  0.00000000E+00  0.00000000E+00
  0.00000000E+00  0.00000000E+00  0.00000000E+00
  0.00000000E+00  0.00000000E+00  0.00000000E+00
  0.00000000E+00  0.00000000E+00  0.00000000E+00
  0.00000000E+00  0.00000000E+00  0.00000000E+00
  0.00000000E+00  0.00000000E+00  0.00000000E+00
  0.00000000E+00  0.00000000E+00  0.00000000E+00
  0.00000000E+00  0.00000000E+00  0.00000000E+00
  0.00000000E+00  0.00000000E+00  0.00000000E+00
  0.00000000E+00  0.00000000E+00  0.00000000E+00
  0.00000000E+00  0.00000000E+00  0.00000000E+00
  0.00000000E+00  0.00000000E+00  0.00000000E+00
  0.00000000E+00  0.00000000E+00  0.00000000E+00
  0.00000000E+00  0.00000000E+00  0.00000000E+00
  0.00000000E+00  0.00000000E+00  0.00000000E+00
  0.00000000E+00  0.00000000E+00  0.00000000E+00
  0.00000000E+00  0.00000000E+00  0.00000000E+00
  0.00000000E+00  0.00000000E+00  0.00000000E+00
  0.00000000E+00  0.00000000E+00  0.00000000E+00
  0.00000000E+00  0.00000000E+00  0.00000000E+00
  0.00000000E+00  0.00000000E+00  0.00000000E+00
  0.00000000E+00  0.00000000E+00  0.00000000E+00
  0.00000000E+00  0.00000000E+00  0.00000000E+00
  0.00000000E+00  0.00000000E+00  0.00000000E+00
  0.00000000E+00  0.00000000E+00  0.00000000E+00
  0.00000000E+00  0.00000000E+00  0.00000000E+00
  0.00000000E+00  0.00000000E+00  0.00000000E+00
  0.00000000E+00  0.00000000E+00  0.00000000E+00
  0.00000000E+00  0.00000000E+00  0.00000000E+00
  0.00000000E+00  0.00000000E+00  0.00000000E+00
  0.00000000E+00  0.00000000E+00  0.00000000E+00
  0.00000000E+00  0.00000000E+00  0.00000000E+00
  0.00000000E+00  0.00000000E+00  0.00000000E+00
  0.00000000E+00  0.00000000E+00  0.00000000E+00
  0.00000000E+00  0.00000000E+00  0.00000000E+00
  0.00000000E+00  0.00000000E+00  0.00000000E+00
  0.00000000E+00  0.00000000E+00  0.00000000E+00
  0.00000000E+00  0.00000000E+00  0.00000000E+00
  0.00000000E+00  0.00000000E+00  0.00000000E+00
  0.00000000E+00  0.00000000E+00  0.00000000E+00
  0.00000000E+00  0.00000000E+00  0.00000000E+00
