CeO2-110-l3-p23:                        
   1.00000000000000     
    10.9800000000000004    0.0000000000000000    0.0000000000000000
     0.0000000000000000   11.6460486861424357    0.0000000000000000
     0.0000000000000000    0.0000000000000000   24.7050405717853714
    36    72     1     1
Selective dynamics
Direct
  0.7712027356029978  0.1666667660079995  0.0000000000000000   F   F   F
  0.7712027356029978  0.5000000993410012  0.0000000000000000   F   F   F
  0.2712027356029978  0.1666667660079995  0.0000000000000000   F   F   F
  0.7712027356029978  0.8333334326740029  0.0000000000000000   F   F   F
  0.2712027356029978  0.5000000993410012  0.0000000000000000   F   F   F
  0.2712027356029978  0.8333334326740029  0.0000000000000000   F   F   F
  0.5212027356029978  0.0000000993410012  0.0785672911050028   F   F   F
  0.5212027356029978  0.6666667660079995  0.0785672911050028   F   F   F
  0.0212027356029978  0.0000000993410012  0.0785672911050028   F   F   F
  0.5212027356029978  0.3333334326740029  0.0785672911050028   F   F   F
  0.0212027356029978  0.3333334326740029  0.0785672911050028   F   F   F
  0.0212027356029978  0.6666667660079995  0.0785672911050028   F   F   F
  0.7707778542546724  0.1673340267855839  0.1575268419412002   T   T   T
  0.7708912271916456  0.8325683021540187  0.1576773968706755   T   T   T
  0.2705430461548460  0.1665601358786341  0.1577195065796143   T   T   T
  0.7713458469245708  0.4994207630970083  0.1576672483038926   T   T   T
  0.2703749404760720  0.5008678777364614  0.1579705258484138   T   T   T
  0.2708961757866499  0.8329026129516777  0.1562044235151585   T   T   T
  0.0188475021118655  0.6664020580281667  0.2351483565831696   T   T   T
  0.5219446800426266  0.6656809613116713  0.2343104675444207   T   T   T
  0.0208585907412261  0.3332645812528415  0.2348531283808229   T   T   T
  0.0187333570187525  0.0008145899656146  0.2328792730926384   T   T   T
  0.5224451838084616  0.0001669441333776  0.2339608327864776   T   T   T
  0.5198327217940862  0.3331629738408594  0.2341047245682604   T   T   T
  0.7707043695686322  0.4980106894301555  0.3168227253641838   T   T   T
  0.7709677111189940  0.1663057454032229  0.3167177704381563   T   T   T
  0.2679958040724935  0.5010009661989545  0.3174056426485029   T   T   T
  0.2693633848112005  0.8343614607092932  0.3098231974411648   T   T   T
  0.2688199238196373  0.1657953791930398  0.3165244157262894   T   T   T
  0.7728588905848883  0.8321331968335229  0.3171413114029700   T   T   T
  0.0192023385421409  0.0077913324301035  0.3844980500289780   T   T   T
  0.5236369680657678  0.0051273947900883  0.3864315899797425   T   T   T
  0.0144781635981404  0.6515350241718501  0.3903667679516046   T   T   T
  0.5228598698668415  0.6582725465604293  0.3865984986987013   T   T   T
  0.0194604464970396  0.3304850120243781  0.3879698543474595   T   T   T
  0.5193167668715489  0.3321316510263793  0.3850262116257930   T   T   T
  0.6462027356029978  0.3333334326740029  0.0000000000000000   F   F   F
  0.1462027356029978  0.0000000993410012  0.0000000000000000   F   F   F
  0.6462027356029978  0.6666667660079995  0.0000000000000000   F   F   F
  0.8962027356029978  0.0000000993410012  0.0000000000000000   F   F   F
  0.8962027356029978  0.3333334326740029  0.0000000000000000   F   F   F
  0.1462027356029978  0.3333334326740029  0.0000000000000000   F   F   F
  0.3962027356029978  0.6666667660079995  0.0000000000000000   F   F   F
  0.3962027356029978  0.0000000993410012  0.0000000000000000   F   F   F
  0.6462027356029978  0.0000000993410012  0.0000000000000000   F   F   F
  0.3962027356029978  0.3333334326740029  0.0000000000000000   F   F   F
  0.8962027356029978  0.6666667660079995  0.0000000000000000   F   F   F
  0.1462027356029978  0.6666667660079995  0.0000000000000000   F   F   F
  0.3962027356029978  0.8333334326740029  0.0785672911050028   F   F   F
  0.6462027356029978  0.8333334326740029  0.0785672911050028   F   F   F
  0.3962027356029978  0.1666667660079995  0.0785672911050028   F   F   F
  0.1462027356029978  0.1666667660079995  0.0785672911050028   F   F   F
  0.8962027356029978  0.1666667660079995  0.0785672911050028   F   F   F
  0.8962027356029978  0.8333334326740029  0.0785672911050028   F   F   F
  0.6462027356029978  0.1666667660079995  0.0785672911050028   F   F   F
  0.1462027356029978  0.8333334326740029  0.0785672911050028   F   F   F
  0.3962027356029978  0.5000000993410012  0.0785672911050028   F   F   F
  0.1462027356029978  0.5000000993410012  0.0785672911050028   F   F   F
  0.8962027356029978  0.5000000993410012  0.0785672911050028   F   F   F
  0.6462027356029978  0.5000000993410012  0.0785672911050028   F   F   F
  0.6459641877428715  0.9990247718612263  0.1572640410396315   T   T   T
  0.3960510043540071  0.6663252921332591  0.1568829287156072   T   T   T
  0.6459381782941742  0.6668419620101439  0.1573398088674784   T   T   T
  0.8954871927839096  0.6666716734154923  0.1571807823845107   T   T   T
  0.1460168162025142 -0.0004744425823096  0.1563226322176161   T   T   T
  0.8946801774197470 -0.0005474699022498  0.1565375252008973   T   T   T
  0.3959157298200940  0.0003917868463983  0.1567846377280237   T   T   T
  0.1457737079669094  0.6660936551630345  0.1567287765513420   T   T   T
  0.3953487619586439  0.3331545485297635  0.1576518608401331   T   T   T
  0.8955337632591921  0.3332064827757833  0.1567474616761888   T   T   T
  0.6455697648321277  0.3333126150850745  0.1568285998323018   T   T   T
  0.1462489445860430  0.3352009366009573  0.1574766345578124   T   T   T
  0.6449270112083447  0.1669779253931805  0.2347854709615005   T   T   T
  0.6464939578532375  0.8326988516421517  0.2366637778636164   T   T   T
  0.3961392375435410  0.8334937496192588  0.2340164804507222   T   T   T
  0.8959525559487425  0.4992814152010376  0.2351063307777269   T   T   T
  0.1466994826878006  0.8317805478390026  0.2338496560268246   T   T   T
  0.6450533668176379  0.4987281153101258  0.2351998546032745   T   T   T
  0.3955669036736381  0.1636420108148520  0.2366226006406148   T   T   T
  0.8956321732679164  0.1668294146870977  0.2348023648200329   T   T   T
  0.3956768047802384  0.5020244614637737  0.2362322595648188   T   T   T
  0.1452166698465061  0.5045219848189346  0.2371226256118537   T   T   T
  0.1449636636317562  0.1662157642688343  0.2340362635562490   T   T   T
  0.8959217227425369  0.8322122381874478  0.2356131564925899   T   T   T
  0.6432330495642287  0.3316491497979421  0.3133401372522507   T   T   T
  0.8928934586621154 -0.0001845020429287  0.3113514379492479   T   T   T
  0.1425571000593656  0.6776542192317691  0.3169920879754627   T   T   T
  0.3951527838709700  0.3333789197130939  0.3131067004494656   T   T   T
  0.6450073553266418  0.0028362784946634  0.3133743242144293   T   T   T
  0.6449502662492166  0.6628967841796128  0.3137301279940838   T   T   T
  0.3984148563010579  0.9912834099634886  0.3155871965358895   T   T   T
  0.8918218240057172  0.6633056329382406  0.3129170125300278   T   T   T
  0.3965458693920706  0.6733194350235031  0.3150049143067690   T   T   T
  0.8929588865208452  0.3322365761825369  0.3127745503632125   T   T   T
  0.1477943184887685  0.3310443470868453  0.3114531583420273   T   T   T
  0.1423149775165400  0.9987590518736511  0.3090723470748860   T   T   T
  0.6364861198744214  0.8353155717897389  0.3877572852112904   T   T   T
  0.1992818017444441  0.8958899798601609  0.3951581517161655   T   T   T
  0.4054487877647525  0.8173279625147966  0.4139258480190995   T   T   T
  0.4029418467802538  0.1652879644756018  0.3900410705164742   T   T   T
  0.1417466749728532  0.1598954811445924  0.3892030359238061   T   T   T
  0.9250701064231382  0.8330479389406232  0.3885849532766526   T   T   T
  0.8956304954805164  0.1571669935403077  0.3914307533709480   T   T   T
  0.6379821773944304  0.1653465621977467  0.3925861209397430   T   T   T
  0.4021953304627597  0.4989981514341188  0.3906326645928704   T   T   T
  0.8936525927130614  0.5032566511345212  0.3929227353139870   T   T   T
  0.6381366950553617  0.4958604393216729  0.3922361964225144   T   T   T
  0.1398616930934349  0.4997211124576903  0.3876043690852128   T   T   T
  0.2437825843749036  0.7735980863733646  0.4437882115753987   T   T   T
  0.1222329650906663  0.6858352094074862  0.4738812782504976   T   T   T
