CeO2-110-l3-p23:                        
   1.00000000000000     
    10.9800000000000004    0.0000000000000000    0.0000000000000000
     0.0000000000000000   11.6460486861424357    0.0000000000000000
     0.0000000000000000    0.0000000000000000   24.7050405717853714
    36    72     1
Selective dynamics
Direct
  0.7712027356029978  0.1666667660079995  0.0000000000000000   F   F   F
  0.7712027356029978  0.5000000993410012  0.0000000000000000   F   F   F
  0.2712027356029978  0.1666667660079995  0.0000000000000000   F   F   F
  0.7712027356029978  0.8333334326740029  0.0000000000000000   F   F   F
  0.2712027356029978  0.5000000993410012  0.0000000000000000   F   F   F
  0.2712027356029978  0.8333334326740029  0.0000000000000000   F   F   F
  0.5212027356029978  0.0000000993410012  0.0785672911050028   F   F   F
  0.5212027356029978  0.6666667660079995  0.0785672911050028   F   F   F
  0.0212027356029978  0.0000000993410012  0.0785672911050028   F   F   F
  0.5212027356029978  0.3333334326740029  0.0785672911050028   F   F   F
  0.0212027356029978  0.3333334326740029  0.0785672911050028   F   F   F
  0.0212027356029978  0.6666667660079995  0.0785672911050028   F   F   F
  0.7712591519383536  0.1677077431533533  0.1575851865466728   T   T   T
  0.7712566594108169  0.8345862693104191  0.1568735516020283   T   T   T
  0.2712474991202596  0.1672991261780509  0.1584061836241562   T   T   T
  0.7712227797950387  0.4985631703103030  0.1573747976581213   T   T   T
  0.2712079520167262  0.4988279170122664  0.1574856961752625   T   T   T
  0.2712123369337675  0.8332346070724846  0.1570927197155767   T   T   T
  0.0196160744418052  0.6663492363234989  0.2328857891162879   T   T   T
  0.5229351072364243  0.6663545247598529  0.2328498903787840   T   T   T
  0.0215049933952884  0.3329576613158451  0.2358925850706211   T   T   T
  0.0218648632678979  0.0008009764023216  0.2339037121223389   T   T   T
  0.5206914413267898  0.0007566009430457  0.2338909880465804   T   T   T
  0.5209882640965835  0.3329646642393118  0.2359021095035906   T   T   T
  0.7713643441569225  0.4987285830277534  0.3156144019194952   T   T   T
  0.7709862867212057  0.1675658265985931  0.3165433884449170   T   T   T
  0.2714470153717456  0.5025638938874228  0.3144424500160538   T   T   T
  0.2713559240927640  0.8278063441716164  0.3133672324648814   T   T   T
  0.2715707852608137  0.1658112702328233  0.3198591245333930   T   T   T
  0.7712910988527576  0.8375468461596742  0.3137413569503094   T   T   T
  0.0172461798935940  0.0048810867497158  0.3859071877531488   T   T   T
  0.5248890708169291  0.0049693696055315  0.3859982672050654   T   T   T
  0.0078890506317509  0.6682536417477516  0.3850454887579343   T   T   T
  0.5350450270819346  0.6685000242070055  0.3850168843767644   T   T   T
  0.0175850179514562  0.3299953219460258  0.3905558843926361   T   T   T
  0.5253068896543907  0.3307999310900959  0.3906800586977533   T   T   T
  0.6462027356029978  0.3333334326740029  0.0000000000000000   F   F   F
  0.1462027356029978  0.0000000993410012  0.0000000000000000   F   F   F
  0.6462027356029978  0.6666667660079995  0.0000000000000000   F   F   F
  0.8962027356029978  0.0000000993410012  0.0000000000000000   F   F   F
  0.8962027356029978  0.3333334326740029  0.0000000000000000   F   F   F
  0.1462027356029978  0.3333334326740029  0.0000000000000000   F   F   F
  0.3962027356029978  0.6666667660079995  0.0000000000000000   F   F   F
  0.3962027356029978  0.0000000993410012  0.0000000000000000   F   F   F
  0.6462027356029978  0.0000000993410012  0.0000000000000000   F   F   F
  0.3962027356029978  0.3333334326740029  0.0000000000000000   F   F   F
  0.8962027356029978  0.6666667660079995  0.0000000000000000   F   F   F
  0.1462027356029978  0.6666667660079995  0.0000000000000000   F   F   F
  0.3962027356029978  0.8333334326740029  0.0785672911050028   F   F   F
  0.6462027356029978  0.8333334326740029  0.0785672911050028   F   F   F
  0.3962027356029978  0.1666667660079995  0.0785672911050028   F   F   F
  0.1462027356029978  0.1666667660079995  0.0785672911050028   F   F   F
  0.8962027356029978  0.1666667660079995  0.0785672911050028   F   F   F
  0.8962027356029978  0.8333334326740029  0.0785672911050028   F   F   F
  0.6462027356029978  0.1666667660079995  0.0785672911050028   F   F   F
  0.1462027356029978  0.8333334326740029  0.0785672911050028   F   F   F
  0.3962027356029978  0.5000000993410012  0.0785672911050028   F   F   F
  0.1462027356029978  0.5000000993410012  0.0785672911050028   F   F   F
  0.8962027356029978  0.5000000993410012  0.0785672911050028   F   F   F
  0.6462027356029978  0.5000000993410012  0.0785672911050028   F   F   F
  0.6460135661034924  0.0006940857178435  0.1566329921180010   T   T   T
  0.3958316843661851  0.6659792481134504  0.1565930898958451   T   T   T
  0.6470633922601474  0.6665435380862854  0.1565601149334094   T   T   T
  0.8953812272071172  0.6665540761483900  0.1565971420002706   T   T   T
  0.1468209864329122  0.0017709366384307  0.1573266601505479   T   T   T
  0.8965035886389309  0.0006207441316335  0.1566262481587851   T   T   T
  0.3955876469702806  0.0016708678779540  0.1572925441093128   T   T   T
  0.1465852526975810  0.6659876747862474  0.1565715779610083   T   T   T
  0.3959195671819531  0.3316233139387980  0.1577687399143484   T   T   T
  0.8966301341685488  0.3337414698446270  0.1570276257028636   T   T   T
  0.6458201891359988  0.3336638928460545  0.1570723048891360   T   T   T
  0.1465108550946379  0.3315326464151602  0.1577526814951711   T   T   T
  0.6454163095674091  0.1674965945736547  0.2346907052767295   T   T   T
  0.6456856175033744  0.8358963917888481  0.2341332993762774   T   T   T
  0.3952111160268612  0.8334643461345734  0.2344827870062589   T   T   T
  0.8971451704965039  0.4985366357222564  0.2351720962610685   T   T   T
  0.1472867224642119  0.8334293311454923  0.2344550173066582   T   T   T
  0.6453364907132352  0.4984553123495737  0.2351911516574894   T   T   T
  0.3958544571909198  0.1664076151832220  0.2388505213334959   T   T   T
  0.8971323530391289  0.1673568442461440  0.2345539761724176   T   T   T
  0.3950816844940702  0.4984950828767691  0.2354217704914753   T   T   T
  0.1474573560569504  0.4986298431732368  0.2353497486705961   T   T   T
  0.1468156423963490  0.1663649053542217  0.2389902484512840   T   T   T
  0.8968441779163283  0.8359672684101038  0.2341886777382441   T   T   T
  0.6470960796382917  0.3308253527133577  0.3136319853740244   T   T   T
  0.8970421090971713  0.0034307787948151  0.3114354579476188   T   T   T
  0.1398888460418904  0.6659405609605683  0.3095940048683329   T   T   T
  0.3944395134549939  0.3405791256518357  0.3175605497357880   T   T   T
  0.6453581063447114  0.0031905987759245  0.3114025041824096   T   T   T
  0.6508634163488848  0.6699122307085056  0.3101609911254790   T   T   T
  0.3968786288834937  0.9895700635151683  0.3156782179333287   T   T   T
  0.8918154989472604  0.6698096050065344  0.3102142807433267   T   T   T
  0.4029281854519435  0.6660007058498750  0.3095467537435197   T   T   T
  0.8951721507730707  0.3308204493111909  0.3133407600606411   T   T   T
  0.1483260301125284  0.3410630146623833  0.3174075865511003   T   T   T
  0.1456351651940091  0.9892828891189526  0.3158285024563965   T   T   T
  0.6382113888984431  0.8407384815176364  0.3887211120560033   T   T   T
  0.1517662133557939  0.8060813812105325  0.4013721282461306   T   T   T
  0.3910719031138490  0.8065906967786984  0.4011280283500613   T   T   T
  0.4000273698718880  0.1550599763675709  0.3920654304735351   T   T   T
  0.1419985121211087  0.1556689528218741  0.3916993823733643   T   T   T
  0.9048368330984878  0.8408199639872173  0.3886887067574447   T   T   T
  0.8995978233940239  0.1577451755747826  0.3927843318506482   T   T   T
  0.6425366993465392  0.1574593614253388  0.3927574203108882   T   T   T
  0.3905157261612929  0.5334339982061908  0.4034807046169113   T   T   T
  0.9018879606098676  0.5060839782183856  0.3892594170011049   T   T   T
  0.6409469579184863  0.5063826225240480  0.3892944945150156   T   T   T
  0.1526852553439113  0.5335851570164276  0.4036525826267330   T   T   T
  0.2716403988865797  0.6699507401173412  0.4112756825930724   T   T   T
