CeO2-110-l3-p23:                        
   1.00000000000000     
    10.9800000000000004    0.0000000000000000    0.0000000000000000
     0.0000000000000000   11.6460486861424357    0.0000000000000000
     0.0000000000000000    0.0000000000000000   24.7050405717853714
    35    72     2     1     1
Selective dynamics
Direct
  0.7712027356029978  0.1666667660079995  0.0000000000000000   F   F   F
  0.7712027356029978  0.5000000993410012  0.0000000000000000   F   F   F
  0.2712027356029978  0.1666667660079995  0.0000000000000000   F   F   F
  0.7712027356029978  0.8333334326740029  0.0000000000000000   F   F   F
  0.2712027356029978  0.5000000993410012  0.0000000000000000   F   F   F
  0.2712027356029978  0.8333334326740029  0.0000000000000000   F   F   F
  0.5212027356029978  0.0000000993410012  0.0785672911050028   F   F   F
  0.5212027356029978  0.6666667660079995  0.0785672911050028   F   F   F
  0.0212027356029978  0.0000000993410012  0.0785672911050028   F   F   F
  0.5212027356029978  0.3333334326740029  0.0785672911050028   F   F   F
  0.0212027356029978  0.3333334326740029  0.0785672911050028   F   F   F
  0.0212027356029978  0.6666667660079995  0.0785672911050028   F   F   F
  0.7719565297660012  0.1665894970539554  0.1573168268321510   T   T   T
  0.7717813804897418  0.8322764502278943  0.1579592223262267   T   T   T
  0.2724120218887549  0.1661561099582372  0.1574010936712185   T   T   T
  0.7717029637954269  0.5000469117040538  0.1565816354455549   T   T   T
  0.2723884965500076  0.5008656925293025  0.1580600507073058   T   T   T
  0.2725548440765309  0.8335792042479540  0.1571757154071776   T   T   T
  0.0237453401978343  0.6660821731858775  0.2344272559720011   T   T   T
  0.5218654446230246  0.6668370039653340  0.2347762501195660   T   T   T
  0.0264890044480808  0.3326358785488992  0.2335034212051639   T   T   T
  0.0222023607968964  0.9987229937594577  0.2335481269497848   T   T   T
  0.5229186198035336  0.0018875358415045  0.2342264113057837   T   T   T
  0.5196061567275194  0.3334672279377742  0.2334258886691742   T   T   T
  0.7736803442926572  0.4976338188270191  0.3109755400304977   T   T   T
  0.7747470974513320  0.1673375828643842  0.3142828905783190   T   T   T
  0.2738889910168183  0.5029674297800923  0.3196531528092876   T   T   T
  0.2757224337724011  0.8344347797036846  0.3148751290425480   T   T   T
  0.2722389453470626  0.1667141069457685  0.3169685077603646   T   T   T
  0.7706665379256634  0.8316601360829097  0.3177449786020077   T   T   T
  0.0244882508735600  0.0017853727884898  0.3843359274723639   T   T   T
  0.5184340491753971  0.9909089225120482  0.3864662875646161   T   T   T
  0.0286983641324952  0.6832370731880957  0.3876025403194134   T   T   T
  0.5177113290887192  0.6690023538188967  0.3899779375713734   T   T   T
  0.0143584744758840  0.3245303819041965  0.3854473343490739   T   T   T
  0.6462027356029978  0.3333334326740029  0.0000000000000000   F   F   F
  0.1462027356029978  0.0000000993410012  0.0000000000000000   F   F   F
  0.6462027356029978  0.6666667660079995  0.0000000000000000   F   F   F
  0.8962027356029978  0.0000000993410012  0.0000000000000000   F   F   F
  0.8962027356029978  0.3333334326740029  0.0000000000000000   F   F   F
  0.1462027356029978  0.3333334326740029  0.0000000000000000   F   F   F
  0.3962027356029978  0.6666667660079995  0.0000000000000000   F   F   F
  0.3962027356029978  0.0000000993410012  0.0000000000000000   F   F   F
  0.6462027356029978  0.0000000993410012  0.0000000000000000   F   F   F
  0.3962027356029978  0.3333334326740029  0.0000000000000000   F   F   F
  0.8962027356029978  0.6666667660079995  0.0000000000000000   F   F   F
  0.1462027356029978  0.6666667660079995  0.0000000000000000   F   F   F
  0.3962027356029978  0.8333334326740029  0.0785672911050028   F   F   F
  0.6462027356029978  0.8333334326740029  0.0785672911050028   F   F   F
  0.3962027356029978  0.1666667660079995  0.0785672911050028   F   F   F
  0.1462027356029978  0.1666667660079995  0.0785672911050028   F   F   F
  0.8962027356029978  0.1666667660079995  0.0785672911050028   F   F   F
  0.8962027356029978  0.8333334326740029  0.0785672911050028   F   F   F
  0.6462027356029978  0.1666667660079995  0.0785672911050028   F   F   F
  0.1462027356029978  0.8333334326740029  0.0785672911050028   F   F   F
  0.3962027356029978  0.5000000993410012  0.0785672911050028   F   F   F
  0.1462027356029978  0.5000000993410012  0.0785672911050028   F   F   F
  0.8962027356029978  0.5000000993410012  0.0785672911050028   F   F   F
  0.6462027356029978  0.5000000993410012  0.0785672911050028   F   F   F
  0.6476207068757915  0.9985199691358204  0.1573222415020723   T   T   T
  0.3968140294983016  0.6659146923791255  0.1570833347715848   T   T   T
  0.6474217754298834  0.6685860288165770  0.1569113579921009   T   T   T
  0.8972899929392781  0.6666949360861167  0.1568859823592987   T   T   T
  0.1471049975257799  0.0001312150942283  0.1568494207159219   T   T   T
  0.8967466623541966  0.9974017318951951  0.1571923458254716   T   T   T
  0.3973112526792306  0.0008526768173596  0.1562873727931731   T   T   T
  0.1468704979724720  0.6662610941389033  0.1572269687402112   T   T   T
  0.3963346342817857  0.3341269297270770  0.1568022182806814   T   T   T
  0.8973451599631517  0.3336115747023598  0.1570571791747710   T   T   T
  0.6469463703884415  0.3328852627098655  0.1565098739817046   T   T   T
  0.1482202999823272  0.3339056859698744  0.1567866206045778   T   T   T
  0.6487865861984048  0.1667027718815035  0.2346834464985790   T   T   T
  0.6478667260941080  0.8333779048072358  0.2384237126938942   T   T   T
  0.3982783157175689  0.8363150981868657  0.2331608161466718   T   T   T
  0.8971211890754276  0.5021249480963590  0.2351345309244550   T   T   T
  0.1474162253604874  0.8325613194998667  0.2349552043164209   T   T   T
  0.6481506814668876  0.5007387978311755  0.2332133268259469   T   T   T
  0.3972836980367731  0.1654578869256724  0.2340917856958455   T   T   T
  0.8981042425039902  0.1641964230475992  0.2342641652776365   T   T   T
  0.3972827482511434  0.4996330539399665  0.2364591714974580   T   T   T
  0.1472020407799306  0.5012860702669570  0.2363637377086789   T   T   T
  0.1478678953671704  0.1670282272137982  0.2356465648547257   T   T   T
  0.8972786753167483  0.8277181681670100  0.2371259985625542   T   T   T
  0.6478711745779151  0.3419224759407200  0.3107019601431915   T   T   T
  0.8980702326595207  0.9978473265191994  0.3117056797831737   T   T   T
  0.1488833291826595  0.6713272796373104  0.3149307334351832   T   T   T
  0.3903424114032745  0.3309768300684439  0.3125368067838536   T   T   T
  0.6501599548882950  0.0051376782828001  0.3162096143924558   T   T   T
  0.6483053180996947  0.6560765405012390  0.3157097344146749   T   T   T
  0.3986516027371252  0.9970491004728430  0.3118850474791444   T   T   T
  0.8999169505139974  0.6584344205382280  0.3188739126309628   T   T   T
  0.3993573254193592  0.6747813301889991  0.3097027127135803   T   T   T
  0.9022126724459554  0.3303919819713457  0.3083487558404272   T   T   T
  0.1470329945264623  0.3332436763050879  0.3153817028639523   T   T   T
  0.1479609147444947  0.9996297627390334  0.3121046823633336   T   T   T
  0.6410658802900997  0.8370686717125295  0.3898292751032031   T   T   T
  0.1439216914700197  0.8378489562059670  0.3922487596676376   T   T   T
  0.4002295592065011  0.8381253695677202  0.3924461371208778   T   T   T
  0.4075642974840008  0.1513121808190547  0.3946502768445512   T   T   T
  0.1412325952915552  0.1631870763858316  0.3914808495655819   T   T   T
  0.9049652514045903  0.8368003096031416  0.3913540167218628   T   T   T
  0.9043799493368354  0.1608581752575660  0.3882298507777122   T   T   T
  0.6677933199275259  0.2088571646393973  0.4006998893059830   T   T   T
  0.3775809663478000  0.5336153445874530  0.3907944573108111   T   T   T
  0.8321700313668288  0.4296877635942238  0.3963191019014118   T   T   T
  0.6467021755375271  0.5598961504551525  0.4315281760951777   T   T   T
  0.0960678789746723  0.5035797480776836  0.3916260116712564   T   T   T
  0.5248734198799028  0.2553211626034795  0.3557457087230489   T   T   T
  0.6699250271527575  0.3893899699978860  0.4296593837736395   T   T   T
  0.5295371874395656  0.3643638184529365  0.4682991388979048   T   T   T
  0.4441620095500625  0.3527198267275793  0.4953891000741208   T   T   T
