CeO2-110-l3-p23:                        
   1.00000000000000     
    10.9800000000000004    0.0000000000000000    0.0000000000000000
     0.0000000000000000   11.6460486861424357    0.0000000000000000
     0.0000000000000000    0.0000000000000000   24.7050405717853714
    35    72     1
Selective dynamics
Direct
  0.7712027356029978  0.1666667660079995  0.0000000000000000   F   F   F
  0.7712027356029978  0.5000000993410012  0.0000000000000000   F   F   F
  0.2712027356029978  0.1666667660079995  0.0000000000000000   F   F   F
  0.7712027356029978  0.8333334326740029  0.0000000000000000   F   F   F
  0.2712027356029978  0.5000000993410012  0.0000000000000000   F   F   F
  0.2712027356029978  0.8333334326740029  0.0000000000000000   F   F   F
  0.5212027356029978  0.0000000993410012  0.0785672911050028   F   F   F
  0.5212027356029978  0.6666667660079995  0.0785672911050028   F   F   F
  0.0212027356029978  0.0000000993410012  0.0785672911050028   F   F   F
  0.5212027356029978  0.3333334326740029  0.0785672911050028   F   F   F
  0.0212027356029978  0.3333334326740029  0.0785672911050028   F   F   F
  0.0212027356029978  0.6666667660079995  0.0785672911050028   F   F   F
  0.7707029955877837  0.1672505004415799  0.1575819464520896   T   T   T
  0.7708717286310193  0.8330161394067248  0.1573125194809063   T   T   T
  0.2710852087812943  0.1669629477618699  0.1568975078504715   T   T   T
  0.7711222483281632  0.4997670698192351  0.1582100043627629   T   T   T
  0.2705387886899824  0.5001548493465310  0.1581062329725681   T   T   T
  0.2716892114600609  0.8333552604840766  0.1573447995448293   T   T   T
  0.0220749601474404  0.6648963211764920  0.2336780880484943   T   T   T
  0.5212655628894717  0.6672257806847163  0.2336450431172453   T   T   T
  0.0200822094594603  0.3363444371991664  0.2338200784273069   T   T   T
  0.0211377278248711  0.9979316450421231  0.2326046626224016   T   T   T
  0.5212031742958857  0.0011347993579435  0.2339372526410549   T   T   T
  0.5189192592981848  0.3349690734893672  0.2333638407593500   T   T   T
  0.7684429892720733  0.5047122636741009  0.3205347595569816   T   T   T
  0.7788013050433946  0.1614485153464817  0.3158424170822036   T   T   T
  0.2759491913166981  0.5036601288906739  0.3212050968213162   T   T   T
  0.2717885477051683  0.8330098405774506  0.3158698801041300   T   T   T
  0.2623824249170369  0.1654543423380114  0.3135249832652276   T   T   T
  0.7733566080094232  0.8312770937094179  0.3153213474257452   T   T   T
  0.0228425226989406  0.9969096506137067  0.3848413957558309   T   T   T
  0.5263297630435080  0.9817878278170805  0.3857099814440419   T   T   T
  0.0223877397365390  0.6663859105987334  0.3857107355297357   T   T   T
  0.5220074597335949  0.6632089135907299  0.3853340899501356   T   T   T
  0.0207920288524821  0.3349667588862994  0.3844434808367806   T   T   T
  0.6462027356029978  0.3333334326740029  0.0000000000000000   F   F   F
  0.1462027356029978  0.0000000993410012  0.0000000000000000   F   F   F
  0.6462027356029978  0.6666667660079995  0.0000000000000000   F   F   F
  0.8962027356029978  0.0000000993410012  0.0000000000000000   F   F   F
  0.8962027356029978  0.3333334326740029  0.0000000000000000   F   F   F
  0.1462027356029978  0.3333334326740029  0.0000000000000000   F   F   F
  0.3962027356029978  0.6666667660079995  0.0000000000000000   F   F   F
  0.3962027356029978  0.0000000993410012  0.0000000000000000   F   F   F
  0.6462027356029978  0.0000000993410012  0.0000000000000000   F   F   F
  0.3962027356029978  0.3333334326740029  0.0000000000000000   F   F   F
  0.8962027356029978  0.6666667660079995  0.0000000000000000   F   F   F
  0.1462027356029978  0.6666667660079995  0.0000000000000000   F   F   F
  0.3962027356029978  0.8333334326740029  0.0785672911050028   F   F   F
  0.6462027356029978  0.8333334326740029  0.0785672911050028   F   F   F
  0.3962027356029978  0.1666667660079995  0.0785672911050028   F   F   F
  0.1462027356029978  0.1666667660079995  0.0785672911050028   F   F   F
  0.8962027356029978  0.1666667660079995  0.0785672911050028   F   F   F
  0.8962027356029978  0.8333334326740029  0.0785672911050028   F   F   F
  0.6462027356029978  0.1666667660079995  0.0785672911050028   F   F   F
  0.1462027356029978  0.8333334326740029  0.0785672911050028   F   F   F
  0.3962027356029978  0.5000000993410012  0.0785672911050028   F   F   F
  0.1462027356029978  0.5000000993410012  0.0785672911050028   F   F   F
  0.8962027356029978  0.5000000993410012  0.0785672911050028   F   F   F
  0.6462027356029978  0.5000000993410012  0.0785672911050028   F   F   F
  0.6462866621174936  0.0028775655072134  0.1570357041528814   T   T   T
  0.3957145629338834  0.6662769255628561  0.1570856566230976   T   T   T
  0.6468187757917717  0.6647412257739495  0.1571138091457662   T   T   T
  0.8958336667101984  0.6663923920200658  0.1566592423819293   T   T   T
  0.1464567827061405 -0.0001360618938791  0.1566328213082323   T   T   T
  0.8956465460743087 -0.0000908687363913  0.1567117025288444   T   T   T
  0.3960868134484555  0.0017041952764308  0.1565132446798410   T   T   T
  0.1467108273585392  0.6667864580915659  0.1565287505111806   T   T   T
  0.3958964408029098  0.3331217050512660  0.1568485905107550   T   T   T
  0.8951245481981149  0.3332001107864267  0.1570858471791728   T   T   T
  0.6451343302573748  0.3329691872809968  0.1569785812466040   T   T   T
  0.1458895387305278  0.3332801132274395  0.1569333672263570   T   T   T
  0.6471809408910063  0.1706315323860705  0.2371246894206983   T   T   T
  0.6459764329500599  0.8359678776317789  0.2330702407805937   T   T   T
  0.3967447224646692  0.8377122645899179  0.2342027380469393   T   T   T
  0.8964592276323892  0.5008521482669452  0.2350635602204207   T   T   T
  0.1464301440729578  0.8321679104198155  0.2349257930477627   T   T   T
  0.6452672563838979  0.4938172032595184  0.2371395076059697   T   T   T
  0.3940810946837335  0.1684532619609249  0.2354279915258724   T   T   T
  0.8965493239763732  0.1653811839813221  0.2355000483279593   T   T   T
  0.3965431548198229  0.4960484623596702  0.2360172330446842   T   T   T
  0.1451470141509428  0.5010092955588867  0.2347144954698289   T   T   T
  0.1448875398514426  0.1662664117230528  0.2349094239815742   T   T   T
  0.8968133522443850  0.8319913902203396  0.2348557824478328   T   T   T
  0.6412524168407788  0.3292813353767695  0.3215869341883648   T   T   T
  0.8984233783516422  0.9979264433574985  0.3119994080247870   T   T   T
  0.1462757887790650  0.6669626380723517  0.3141095222274354   T   T   T
  0.3948470235882883  0.3317347331540987  0.3182905700410157   T   T   T
  0.6484793589411477  0.9963841106618966  0.3122313529313672   T   T   T
  0.6469737964003126  0.6723911630506857  0.3086039963022802   T   T   T
  0.3964608801128223  0.0013764278537383  0.3141024913797774   T   T   T
  0.8978904378328801  0.6660480762532234  0.3138165461377933   T   T   T
  0.3969564287252176  0.6721683779093968  0.3088613686267594   T   T   T
  0.8927382189234597  0.3324140999871770  0.3128914021439328   T   T   T
  0.1444722422402030  0.3335101589375661  0.3120989535058245   T   T   T
  0.1454175566612608  0.9987851565247423  0.3114966025200578   T   T   T
  0.6456211458815801  0.8336641488269397  0.3912632953120840   T   T   T
  0.1415997888543959  0.8350589300932667  0.3906186812240208   T   T   T
  0.4028115581874955  0.8353259266262085  0.3909403279735720   T   T   T
  0.4001333236905322  0.1610627908716953  0.3954223610492684   T   T   T
  0.1421143619061180  0.1646393557300516  0.3885040274930396   T   T   T
  0.9048702283541431  0.8337318746655513  0.3902684173950256   T   T   T
  0.9032110179350893  0.1626996419662486  0.3893342952060872   T   T   T
  0.6435015934453603  0.1514214139410999  0.3964009065628211   T   T   T
  0.3866866572928747  0.5334793696349415  0.3917831488212498   T   T   T
  0.9062977203459792  0.4985279601150233  0.3914385844930394   T   T   T
  0.6561894519663195  0.5306934939955441  0.3903986659637084   T   T   T
  0.1371283488308634  0.4974743535155178  0.3916192685734058   T   T   T
  0.5206327099407925  0.2505740926759639  0.3625821974938673   T   T   T
