CeO2-110-l3-p23:                        
   1.00000000000000     
    10.9800000000000004    0.0000000000000000    0.0000000000000000
     0.0000000000000000   11.6460486861424357    0.0000000000000000
     0.0000000000000000    0.0000000000000000   24.7050405717853714
    36    72     1     1     1
Selective dynamics
Direct
  0.7712027356029978  0.1666667660079995  0.0000000000000000   F   F   F
  0.7712027356029978  0.5000000993410012  0.0000000000000000   F   F   F
  0.2712027356029978  0.1666667660079995  0.0000000000000000   F   F   F
  0.7712027356029978  0.8333334326740029  0.0000000000000000   F   F   F
  0.2712027356029978  0.5000000993410012  0.0000000000000000   F   F   F
  0.2712027356029978  0.8333334326740029  0.0000000000000000   F   F   F
  0.5212027356029978  0.0000000993410012  0.0785672911050028   F   F   F
  0.5212027356029978  0.6666667660079995  0.0785672911050028   F   F   F
  0.0212027356029978  0.0000000993410012  0.0785672911050028   F   F   F
  0.5212027356029978  0.3333334326740029  0.0785672911050028   F   F   F
  0.0212027356029978  0.3333334326740029  0.0785672911050028   F   F   F
  0.0212027356029978  0.6666667660079995  0.0785672911050028   F   F   F
  0.7710771283943746  0.1674327960544856  0.1576415816341141   T   T   T
  0.7707977542798530  0.8332707185374695  0.1575461182751941   T   T   T
  0.2705277896111924  0.1667453401969691  0.1578636230923550   T   T   T
  0.7711044295440241  0.4992965300046238  0.1576994018890020   T   T   T
  0.2705648090841185  0.4998706795812397  0.1578825143197130   T   T   T
  0.2710274941042772  0.8332439858728125  0.1566459071658936   T   T   T
  0.0194268981525588  0.6664998947415440  0.2334171987521211   T   T   T
  0.5214046476255985  0.6656384942428242  0.2339774197259222   T   T   T
  0.0204863847193130  0.3333679696663008  0.2353431048180677   T   T   T
  0.0195196222469587  0.0002183979630136  0.2332417477193591   T   T   T
  0.5214315848662241  0.0007674619847499  0.2338678680815834   T   T   T
  0.5200435977264384  0.3332488477907724  0.2341716919665769   T   T   T
  0.7710442828581591  0.4995180458538070  0.3172094729662322   T   T   T
  0.7713077048269965  0.1674768886306991  0.3169805464206238   T   T   T
  0.2678799440850104  0.5004098083029066  0.3172344975338880   T   T   T
  0.2701216409561696  0.8332933053505317  0.3120266423281602   T   T   T
  0.2680926997889100  0.1658006843689675  0.3172330004395455   T   T   T
  0.7696636192437594  0.8332358372505287  0.3168180026585697   T   T   T
  0.0165898169962652  0.0051072039655885  0.3846871141839616   T   T   T
  0.5221407388714456  0.0060752660757407  0.3858299188236365   T   T   T
  0.0164035082034182  0.6617645698838732  0.3851061208448859   T   T   T
  0.5205983068389508  0.6608999830552172  0.3860640543625704   T   T   T
  0.0195032761682099  0.3334400163851148  0.3893513628909027   T   T   T
  0.5193934229350901  0.3334784627802744  0.3850051739569240   T   T   T
  0.6462027356029978  0.3333334326740029  0.0000000000000000   F   F   F
  0.1462027356029978  0.0000000993410012  0.0000000000000000   F   F   F
  0.6462027356029978  0.6666667660079995  0.0000000000000000   F   F   F
  0.8962027356029978  0.0000000993410012  0.0000000000000000   F   F   F
  0.8962027356029978  0.3333334326740029  0.0000000000000000   F   F   F
  0.1462027356029978  0.3333334326740029  0.0000000000000000   F   F   F
  0.3962027356029978  0.6666667660079995  0.0000000000000000   F   F   F
  0.3962027356029978  0.0000000993410012  0.0000000000000000   F   F   F
  0.6462027356029978  0.0000000993410012  0.0000000000000000   F   F   F
  0.3962027356029978  0.3333334326740029  0.0000000000000000   F   F   F
  0.8962027356029978  0.6666667660079995  0.0000000000000000   F   F   F
  0.1462027356029978  0.6666667660079995  0.0000000000000000   F   F   F
  0.3962027356029978  0.8333334326740029  0.0785672911050028   F   F   F
  0.6462027356029978  0.8333334326740029  0.0785672911050028   F   F   F
  0.3962027356029978  0.1666667660079995  0.0785672911050028   F   F   F
  0.1462027356029978  0.1666667660079995  0.0785672911050028   F   F   F
  0.8962027356029978  0.1666667660079995  0.0785672911050028   F   F   F
  0.8962027356029978  0.8333334326740029  0.0785672911050028   F   F   F
  0.6462027356029978  0.1666667660079995  0.0785672911050028   F   F   F
  0.1462027356029978  0.8333334326740029  0.0785672911050028   F   F   F
  0.3962027356029978  0.5000000993410012  0.0785672911050028   F   F   F
  0.1462027356029978  0.5000000993410012  0.0785672911050028   F   F   F
  0.8962027356029978  0.5000000993410012  0.0785672911050028   F   F   F
  0.6462027356029978  0.5000000993410012  0.0785672911050028   F   F   F
  0.6459425655565104  0.9996828303476133  0.1572001753294058   T   T   T
  0.3959088252285962  0.6664898703237847  0.1569950057053905   T   T   T
  0.6459535175383728  0.6669178344958323  0.1572243984059014   T   T   T
  0.8952536056907603  0.6664544226750785  0.1566536720394541   T   T   T
  0.1461563903471923  0.0003684162616999  0.1565103983754000   T   T   T
  0.8951985201710446  0.0002561468071217  0.1566255794314545   T   T   T
  0.3958925209590003  0.0000947465986849  0.1569440295038052   T   T   T
  0.1461554381613411  0.6660957742807501  0.1565810993003092   T   T   T
  0.3954356285415366  0.3331803089773508  0.1573855535260047   T   T   T
  0.8956745438958079  0.3333310476229467  0.1569390516768386   T   T   T
  0.6456822561190810  0.3333700261645308  0.1569314780622907   T   T   T
  0.1461383589924171  0.3334837976755861  0.1575576209602533   T   T   T
  0.6451060779759840  0.1670923136477322  0.2351592647062982   T   T   T
  0.6451550459765238  0.8332519258620094  0.2361524785405714   T   T   T
  0.3953005010248074  0.8333343864870058  0.2350140858112593   T   T   T
  0.8958527502922036  0.4993786505468226  0.2351602332800709   T   T   T
  0.1465995644562716  0.8332294271869681  0.2338082852976801   T   T   T
  0.6450611557136336  0.4996274040010529  0.2352823180487886   T   T   T
  0.3955217715854916  0.1649555977925916  0.2361392536676485   T   T   T
  0.8958883369976022  0.1674616537115839  0.2351812760535963   T   T   T
  0.3955380084213851  0.5011115230248478  0.2359946214537148   T   T   T
  0.1451121287162503  0.5012882706243732  0.2360961805029199   T   T   T
  0.1451723107180306  0.1654834560490963  0.2357563852854991   T   T   T
  0.8957080929788714  0.8332900924811071  0.2346632640663810   T   T   T
  0.6434939550461526  0.3332628523785560  0.3133817572068112   T   T   T
  0.8939140042715914  0.0000396186020941  0.3112324681396499   T   T   T
  0.1437069792285169  0.6731076851215374  0.3125819590142100   T   T   T
  0.3949225990728300  0.3329174007672470  0.3132645950882346   T   T   T
  0.6447168242011494  0.0024955035486630  0.3135656553915505   T   T   T
  0.6443382029173494  0.6644752805200881  0.3138243152153865   T   T   T
  0.3963493393795504  0.9954540165326272  0.3145131323287642   T   T   T
  0.8937605771019445  0.6665874104309378  0.3113516749798230   T   T   T
  0.3959046775524757  0.6702963576762961  0.3141589739781212   T   T   T
  0.8928357580496975  0.3336023806262757  0.3137286900818079   T   T   T
  0.1473655172533120  0.3325214656654654  0.3134147124256179   T   T   T
  0.1439303982438393  0.9945208145192775  0.3119890514736914   T   T   T
  0.6313413813473150  0.8339469295714413  0.3891319854798085   T   T   T
  0.1488168964621837  0.8372641278939411  0.3958818394315959   T   T   T
  0.3932553165501391  0.8319325484580031  0.3974585413860861   T   T   T
  0.4017830201723693  0.1659486404661192  0.3907830521549521   T   T   T
  0.1410311161718854  0.1552168031757266  0.3904802696838338   T   T   T
  0.9050722086179191  0.8332883641500195  0.3887239942690910   T   T   T
  0.8956605334535238  0.1562118297535497  0.3914682178704423   T   T   T
  0.6376339496806693  0.1676817221157246  0.3919838751332404   T   T   T
  0.4015154291642506  0.4994802882753239  0.3904776860749103   T   T   T
  0.8954164049700791  0.5109762396564264  0.3917653483097767   T   T   T
  0.6371406658464537  0.4986533607687318  0.3919643939137325   T   T   T
  0.1402342893591055  0.5100881468666936  0.3896542256902552   T   T   T
  0.2578848413702575  0.7885724462334588  0.4552406280135382   T   T   T
  0.3650642785216510  0.6949356413129787  0.5574280323066854   T   T   T
  0.3273584958304738  0.7329489727074768  0.5168411197283294   T   T   T
