CeO2-110-l3-p23:                        
   1.00000000000000     
    10.9800000000000004    0.0000000000000000    0.0000000000000000
     0.0000000000000000   11.6460486861424357    0.0000000000000000
     0.0000000000000000    0.0000000000000000   24.7050405717853714
    36    72     1     1     1     2
Selective dynamics
Direct
  0.7712027356029978  0.1666667660079995  0.0000000000000000   F   F   F
  0.7712027356029978  0.5000000993410012  0.0000000000000000   F   F   F
  0.2712027356029978  0.1666667660079995  0.0000000000000000   F   F   F
  0.7712027356029978  0.8333334326740029  0.0000000000000000   F   F   F
  0.2712027356029978  0.5000000993410012  0.0000000000000000   F   F   F
  0.2712027356029978  0.8333334326740029  0.0000000000000000   F   F   F
  0.5212027356029978  0.0000000993410012  0.0785672911050028   F   F   F
  0.5212027356029978  0.6666667660079995  0.0785672911050028   F   F   F
  0.0212027356029978  0.0000000993410012  0.0785672911050028   F   F   F
  0.5212027356029978  0.3333334326740029  0.0785672911050028   F   F   F
  0.0212027356029978  0.3333334326740029  0.0785672911050028   F   F   F
  0.0212027356029978  0.6666667660079995  0.0785672911050028   F   F   F
  0.7707197049961747  0.1675309146584058  0.1574620147013271   T   T   T
  0.7712897201202739  0.8332058137791155  0.1577953955794042   T   T   T
  0.2709262212265323  0.1667244771468932  0.1576052906109499   T   T   T
  0.7710131296550310  0.5005006494487126  0.1576838992085624   T   T   T
  0.2705437720347025  0.5011791535055674  0.1579279101883460   T   T   T
  0.2709174813647987  0.8330823549839703  0.1567310273521408   T   T   T
  0.0196705581809375  0.6664541544827269  0.2357319300224155   T   T   T
  0.5221383037174889  0.6668251782399565  0.2344247930191068   T   T   T
  0.0203784552691347  0.3337367155399326  0.2336798865618026   T   T   T
  0.0194372627676937  0.0012920538667114  0.2334496547034201   T   T   T
  0.5219115588837040  0.0010673688899733  0.2338680468907114   T   T   T
  0.5198548884737744  0.3345124047397968  0.2339520026683115   T   T   T
  0.7714005144496903  0.5009595763788814  0.3170873274667349   T   T   T
  0.7680254612267653  0.1687151660349139  0.3165302297453479   T   T   T
  0.2683985464633362  0.5014962949877951  0.3172607028749887   T   T   T
  0.2707376719556256  0.8337139002333044  0.3116895346119837   T   T   T
  0.2690620023750420  0.1667166002066898  0.3163440601439658   T   T   T
  0.7708994859931050  0.8342119858905491  0.3171509496368149   T   T   T
  0.0147736792126266  0.0082922203584415  0.3846724650180978   T   T   T
  0.5185050541851329  0.0050269127492744  0.3862794791666667   T   T   T
  0.0182846229386477  0.6610232004023663  0.3917363369599284   T   T   T
  0.5234251701590845  0.6621316801406214  0.3869226715103383   T   T   T
  0.0192176540577367  0.3347829083015684  0.3849571527876549   T   T   T
  0.5190920020826545  0.3344757432916697  0.3849958827074586   T   T   T
  0.6462027356029978  0.3333334326740029  0.0000000000000000   F   F   F
  0.1462027356029978  0.0000000993410012  0.0000000000000000   F   F   F
  0.6462027356029978  0.6666667660079995  0.0000000000000000   F   F   F
  0.8962027356029978  0.0000000993410012  0.0000000000000000   F   F   F
  0.8962027356029978  0.3333334326740029  0.0000000000000000   F   F   F
  0.1462027356029978  0.3333334326740029  0.0000000000000000   F   F   F
  0.3962027356029978  0.6666667660079995  0.0000000000000000   F   F   F
  0.3962027356029978  0.0000000993410012  0.0000000000000000   F   F   F
  0.6462027356029978  0.0000000993410012  0.0000000000000000   F   F   F
  0.3962027356029978  0.3333334326740029  0.0000000000000000   F   F   F
  0.8962027356029978  0.6666667660079995  0.0000000000000000   F   F   F
  0.1462027356029978  0.6666667660079995  0.0000000000000000   F   F   F
  0.3962027356029978  0.8333334326740029  0.0785672911050028   F   F   F
  0.6462027356029978  0.8333334326740029  0.0785672911050028   F   F   F
  0.3962027356029978  0.1666667660079995  0.0785672911050028   F   F   F
  0.1462027356029978  0.1666667660079995  0.0785672911050028   F   F   F
  0.8962027356029978  0.1666667660079995  0.0785672911050028   F   F   F
  0.8962027356029978  0.8333334326740029  0.0785672911050028   F   F   F
  0.6462027356029978  0.1666667660079995  0.0785672911050028   F   F   F
  0.1462027356029978  0.8333334326740029  0.0785672911050028   F   F   F
  0.3962027356029978  0.5000000993410012  0.0785672911050028   F   F   F
  0.1462027356029978  0.5000000993410012  0.0785672911050028   F   F   F
  0.8962027356029978  0.5000000993410012  0.0785672911050028   F   F   F
  0.6462027356029978  0.5000000993410012  0.0785672911050028   F   F   F
  0.6462290271172368  0.0002025826107965  0.1570855424126857   T   T   T
  0.3959811423813154  0.6665435567076797  0.1568855153076798   T   T   T
  0.6461231800697406  0.6674472498127111  0.1572318944863411   T   T   T
  0.8956618857442821  0.6671329474348803  0.1573651663374599   T   T   T
  0.1460562623155034 -0.0000971042485939  0.1566930816114860   T   T   T
  0.8953753418164520 -0.0001947777419665  0.1568316620330755   T   T   T
  0.3958441348032783  0.0005306802705457  0.1568022728683223   T   T   T
  0.1459102798817760  0.6668396955857359  0.1572334634892512   T   T   T
  0.3952550717729626  0.3341727277513022  0.1574516040741413   T   T   T
  0.8954177982912327  0.3342325168456410  0.1565511355554225   T   T   T
  0.6456176784468103  0.3335853366444448  0.1568436990898613   T   T   T
  0.1462031079973335  0.3339047689105358  0.1571102942793819   T   T   T
  0.6448133986289022  0.1679614738969670  0.2351406815654032   T   T   T
  0.6459192870514230  0.8345058648379315  0.2358912832034580   T   T   T
  0.3963002952826594  0.8336620208624858  0.2342785986921060   T   T   T
  0.8958468175604224  0.5003535006004654  0.2354440916917648   T   T   T
  0.1469226864264584  0.8334362531203994  0.2350909027231092   T   T   T
  0.6451144598567512  0.4999126913990145  0.2349334261114365   T   T   T
  0.3954287043051213  0.1657046256897750  0.2358656729668199   T   T   T
  0.8953555342442715  0.1683283935625500  0.2343703994498220   T   T   T
  0.3955594317696664  0.5028912323149872  0.2365224821436387   T   T   T
  0.1451786736308291  0.5013861443956137  0.2359416296655758   T   T   T
  0.1453521492243624  0.1660319665198440  0.2349578863827233   T   T   T
  0.8965154334868737  0.8336803450524536  0.2360457363197025   T   T   T
  0.6436060556503470  0.3343845657878682  0.3130650794140566   T   T   T
  0.8932263719314535  0.0054665213503625  0.3116634959544166   T   T   T
  0.1450317358884808  0.6692276261816722  0.3148873075865632   T   T   T
  0.3943216375886983  0.3329709733968974  0.3128447675944698   T   T   T
  0.6439525517389134  0.0038387383380857  0.3135421642504551   T   T   T
  0.6467230253309237  0.6650271914456977  0.3127077193500371   T   T   T
  0.3956889298155127  0.9959349766899921  0.3137112844607511   T   T   T
  0.8938501832529214  0.6656201754359387  0.3144827761316848   T   T   T
  0.3966714668814693  0.6743542381385590  0.3151858850334190   T   T   T
  0.8949787436661607  0.3333285734796209  0.3125440047281402   T   T   T
  0.1449114745346357  0.3318358360223534  0.3120423868282819   T   T   T
  0.1424991145137809 -0.0008923793644384  0.3124927762416885   T   T   T
  0.6295607744705938  0.8342107915539504  0.3871581543637111   T   T   T
  0.1541515097319983  0.8415947638901584  0.3901904477266790   T   T   T
  0.3883127074349605  0.8443032051906251  0.4039896861849072   T   T   T
  0.3994804227987129  0.1661954159839049  0.3901487412297861   T   T   T
  0.1364875278880930  0.1661852852681778  0.3899251066036410   T   T   T
  0.9068044578605332  0.8425645044085587  0.3877741986397192   T   T   T
  0.8979931639257862  0.1678829158138567  0.3911578890412423   T   T   T
  0.6362826324485671  0.1692895779143912  0.3915466967831748   T   T   T
  0.4023379841549257  0.4993245037516915  0.3892976189842733   T   T   T
  0.8997386631626805  0.4955352874833440  0.3920321161441517   T   T   T
  0.6387521213097201  0.5000393977446538  0.3908234702994646   T   T   T
  0.1386893910156262  0.4928755087608568  0.3892147500674705   T   T   T
  0.2436187579913472  0.7814987256351315  0.4515454446823200   T   T   T
  0.4875899056181365  0.6806834382180976  0.4879980460200749   T   T   T
  0.3836517376976704  0.7151952912398508  0.4955178137140604   T   T   T
  0.0877031697316205  0.7157842410488174  0.4716661629321733   T   T   T
  0.3057909986833807  0.7294437908913912  0.5316220387795337   T   T   T
