CeO2-110-l3-p23:                        
   1.00000000000000     
    10.9800000000000004    0.0000000000000000    0.0000000000000000
     0.0000000000000000   11.6460486861424357    0.0000000000000000
     0.0000000000000000    0.0000000000000000   24.7050405717853714
   Ce   O    Pt   O    C    O 
    36    72     1     1     1     1
Selective dynamics
Direct
  0.7712027356029978  0.1666667660079995  0.0000000000000000   F   F   F
  0.7712027356029978  0.5000000993410012  0.0000000000000000   F   F   F
  0.2712027356029978  0.1666667660079995  0.0000000000000000   F   F   F
  0.7712027356029978  0.8333334326740029  0.0000000000000000   F   F   F
  0.2712027356029978  0.5000000993410012  0.0000000000000000   F   F   F
  0.2712027356029978  0.8333334326740029  0.0000000000000000   F   F   F
  0.5212027356029978  0.0000000993410012  0.0785672911050028   F   F   F
  0.5212027356029978  0.6666667660079995  0.0785672911050028   F   F   F
  0.0212027356029978  0.0000000993410012  0.0785672911050028   F   F   F
  0.5212027356029978  0.3333334326740029  0.0785672911050028   F   F   F
  0.0212027356029978  0.3333334326740029  0.0785672911050028   F   F   F
  0.0212027356029978  0.6666667660079995  0.0785672911050028   F   F   F
  0.7709491515008680  0.1675524949448807  0.1576522849625345   T   T   T
  0.7708373032762996  0.8332317392843920  0.1575965855273413   T   T   T
  0.2706492600996355  0.1668702196475365  0.1579082551794386   T   T   T
  0.7710605392635849  0.4995276032753658  0.1577079044266892   T   T   T
  0.2705799567915061  0.5001782856234567  0.1579480330190229   T   T   T
  0.2710278423695276  0.8332388148534505  0.1567679383455747   T   T   T
  0.0194696162786165  0.6665018780705966  0.2339415271815757   T   T   T
  0.5214441120342498  0.6660197348805919  0.2341830716050347   T   T   T
  0.0209010053764418  0.3336506545785539  0.2351622434718928   T   T   T
  0.0195148383561739  0.0006363687149698  0.2332873405745708   T   T   T
  0.5214623998552234  0.0007412637422632  0.2339789812264008   T   T   T
  0.5204197666723474  0.3335841018515159  0.2343307850569947   T   T   T
  0.7724525990108421  0.5001834301891626  0.3173929059175153   T   T   T
  0.7721427430178381  0.1675947917512259  0.3170391654553767   T   T   T
  0.2681942574035032  0.5010648263190820  0.3175305119838817   T   T   T
  0.2687901248104554  0.8336650775095601  0.3123102978888221   T   T   T
  0.2686058591017355  0.1661652165189645  0.3173307590251472   T   T   T
  0.7706786111085008  0.8332444079350675  0.3168156855185376   T   T   T
  0.0181727021623700  0.0043940420438467  0.3848920182909542   T   T   T
  0.5232478829130657  0.0066423653098325  0.3859117985205428   T   T   T
  0.0183359295764428  0.6633455044774674  0.3869976335367684   T   T   T
  0.5225862552507012  0.6605556330435515  0.3864680135645839   T   T   T
  0.0201928938073293  0.3339474752599151  0.3890159954712512   T   T   T
  0.5202360017413346  0.3336999470314214  0.3851474808394876   T   T   T
  0.6462027356029978  0.3333334326740029  0.0000000000000000   F   F   F
  0.1462027356029978  0.0000000993410012  0.0000000000000000   F   F   F
  0.6462027356029978  0.6666667660079995  0.0000000000000000   F   F   F
  0.8962027356029978  0.0000000993410012  0.0000000000000000   F   F   F
  0.8962027356029978  0.3333334326740029  0.0000000000000000   F   F   F
  0.1462027356029978  0.3333334326740029  0.0000000000000000   F   F   F
  0.3962027356029978  0.6666667660079995  0.0000000000000000   F   F   F
  0.3962027356029978  0.0000000993410012  0.0000000000000000   F   F   F
  0.6462027356029978  0.0000000993410012  0.0000000000000000   F   F   F
  0.3962027356029978  0.3333334326740029  0.0000000000000000   F   F   F
  0.8962027356029978  0.6666667660079995  0.0000000000000000   F   F   F
  0.1462027356029978  0.6666667660079995  0.0000000000000000   F   F   F
  0.3962027356029978  0.8333334326740029  0.0785672911050028   F   F   F
  0.6462027356029978  0.8333334326740029  0.0785672911050028   F   F   F
  0.3962027356029978  0.1666667660079995  0.0785672911050028   F   F   F
  0.1462027356029978  0.1666667660079995  0.0785672911050028   F   F   F
  0.8962027356029978  0.1666667660079995  0.0785672911050028   F   F   F
  0.8962027356029978  0.8333334326740029  0.0785672911050028   F   F   F
  0.6462027356029978  0.1666667660079995  0.0785672911050028   F   F   F
  0.1462027356029978  0.8333334326740029  0.0785672911050028   F   F   F
  0.3962027356029978  0.5000000993410012  0.0785672911050028   F   F   F
  0.1462027356029978  0.5000000993410012  0.0785672911050028   F   F   F
  0.8962027356029978  0.5000000993410012  0.0785672911050028   F   F   F
  0.6462027356029978  0.5000000993410012  0.0785672911050028   F   F   F
  0.6458499076723243  0.9996907432615304  0.1572596577645914   T   T   T
  0.3958982998576515  0.6664441162198419  0.1570072423349056   T   T   T
  0.6458073112739208  0.6670612535146520  0.1572756605496936   T   T   T
  0.8952507250041211  0.6665055173614624  0.1567768480060774   T   T   T
  0.1461710009144340  0.0004184069463434  0.1566256140748961   T   T   T
  0.8951397899340425  0.0003490134164782  0.1566818897963284   T   T   T
  0.3958681036593645  0.0003162578918285  0.1569815810997539   T   T   T
  0.1461032395960987  0.6662094272527820  0.1567529310129590   T   T   T
  0.3955280214602996  0.3334017378012272  0.1576504512511271   T   T   T
  0.8957238667442851  0.3335040679366764  0.1569482639113221   T   T   T
  0.6456582113767377  0.3334852402808829  0.1568756214474194   T   T   T
  0.1462639228159212  0.3337586105754652  0.1574139596006315   T   T   T
  0.6450953945483191  0.1674580663885160  0.2350807435626432   T   T   T
  0.6452847650068603  0.8333414352595270  0.2362554841743089   T   T   T
  0.3953285400699088  0.8334109795824945  0.2349233119640520   T   T   T
  0.8959473954252546  0.4996668265113735  0.2353085707254447   T   T   T
  0.1463777672135802  0.8332568724778135  0.2341572765952770   T   T   T
  0.6451612927511696  0.4996600223296668  0.2352256113560886   T   T   T
  0.3955680418417404  0.1647093541832855  0.2364714706074494   T   T   T
  0.8959500910377683  0.1677752762400708  0.2352114500776454   T   T   T
  0.3955697509857675  0.5020855178915248  0.2364628024779689   T   T   T
  0.1453068218708393  0.5011580545216008  0.2361408942442196   T   T   T
  0.1453223114722990  0.1664636341116426  0.2355819359684487   T   T   T
  0.8957446619831628  0.8332740751423876  0.2348055964929306   T   T   T
  0.6442801310079087  0.3335505906267652  0.3135307610780336   T   T   T
  0.8943989350716803  0.0001499375324579  0.3114201160463028   T   T   T
  0.1437860617082517  0.6722396857342833  0.3130347102474685   T   T   T
  0.3954547787863366  0.3332198755284344  0.3134507167266657   T   T   T
  0.6450961003948247  0.0031990500046489  0.3134864266948161   T   T   T
  0.6450333120823160  0.6640873629447781  0.3138293087198897   T   T   T
  0.3966832854817195  0.9945292803593948  0.3152282965130910   T   T   T
  0.8947190943386738  0.6669095337106851  0.3121938027210308   T   T   T
  0.3965333523243052  0.6723296047333783  0.3152983916563405   T   T   T
  0.8939564186501578  0.3338847976964808  0.3137345020378832   T   T   T
  0.1476786090749188  0.3329575757186768  0.3137552676449829   T   T   T
  0.1440397920120474  0.9964209126879242  0.3116285914405653   T   T   T
  0.6309931566284065  0.8343019141953448  0.3883923526452975   T   T   T
  0.1514837544638072  0.8383526682149280  0.3939622347168695   T   T   T
  0.3911393499041330  0.8324628803965609  0.4012618838878064   T   T   T
  0.4029470464004129  0.1660100740049281  0.3908062116328603   T   T   T
  0.1415800636821125  0.1564799159962338  0.3905269151292708   T   T   T
  0.9061053859325308  0.8337832680296036  0.3886448525826455   T   T   T
  0.8973966883899318  0.1576065591040058  0.3911275820956528   T   T   T
  0.6386065434820566  0.1676085068642250  0.3920757359701805   T   T   T
  0.4029072121370202  0.4998780269818882  0.3905699377092473   T   T   T
  0.8976826553533563  0.5102629776557280  0.3917929480743498   T   T   T
  0.6384922535188617  0.4990612171151386  0.3921273782155719   T   T   T
  0.1411216025351803  0.5094676570025136  0.3899239418323542   T   T   T
  0.2653131897712230  0.7877923740012335  0.4549628654446623   T   T   T
  0.1478785108260826  0.7352868275064041  0.5085073967347481   T   T   T
  0.3115276516965039  0.7272507895025361  0.5225310174348380   T   T   T
  0.3527802381039498  0.6909925833006580  0.5628107364584116   T   T   T
 
  0.00000000E+00  0.00000000E+00  0.00000000E+00
  0.00000000E+00  0.00000000E+00  0.00000000E+00
  0.00000000E+00  0.00000000E+00  0.00000000E+00
  0.00000000E+00  0.00000000E+00  0.00000000E+00
  0.00000000E+00  0.00000000E+00  0.00000000E+00
  0.00000000E+00  0.00000000E+00  0.00000000E+00
  0.00000000E+00  0.00000000E+00  0.00000000E+00
  0.00000000E+00  0.00000000E+00  0.00000000E+00
  0.00000000E+00  0.00000000E+00  0.00000000E+00
  0.00000000E+00  0.00000000E+00  0.00000000E+00
  0.00000000E+00  0.00000000E+00  0.00000000E+00
  0.00000000E+00  0.00000000E+00  0.00000000E+00
  0.00000000E+00  0.00000000E+00  0.00000000E+00
  0.00000000E+00  0.00000000E+00  0.00000000E+00
  0.00000000E+00  0.00000000E+00  0.00000000E+00
  0.00000000E+00  0.00000000E+00  0.00000000E+00
  0.00000000E+00  0.00000000E+00  0.00000000E+00
  0.00000000E+00  0.00000000E+00  0.00000000E+00
  0.00000000E+00  0.00000000E+00  0.00000000E+00
  0.00000000E+00  0.00000000E+00  0.00000000E+00
  0.00000000E+00  0.00000000E+00  0.00000000E+00
  0.00000000E+00  0.00000000E+00  0.00000000E+00
  0.00000000E+00  0.00000000E+00  0.00000000E+00
  0.00000000E+00  0.00000000E+00  0.00000000E+00
  0.00000000E+00  0.00000000E+00  0.00000000E+00
  0.00000000E+00  0.00000000E+00  0.00000000E+00
  0.00000000E+00  0.00000000E+00  0.00000000E+00
  0.00000000E+00  0.00000000E+00  0.00000000E+00
  0.00000000E+00  0.00000000E+00  0.00000000E+00
  0.00000000E+00  0.00000000E+00  0.00000000E+00
  0.00000000E+00  0.00000000E+00  0.00000000E+00
  0.00000000E+00  0.00000000E+00  0.00000000E+00
  0.00000000E+00  0.00000000E+00  0.00000000E+00
  0.00000000E+00  0.00000000E+00  0.00000000E+00
  0.00000000E+00  0.00000000E+00  0.00000000E+00
  0.00000000E+00  0.00000000E+00  0.00000000E+00
  0.00000000E+00  0.00000000E+00  0.00000000E+00
  0.00000000E+00  0.00000000E+00  0.00000000E+00
  0.00000000E+00  0.00000000E+00  0.00000000E+00
  0.00000000E+00  0.00000000E+00  0.00000000E+00
  0.00000000E+00  0.00000000E+00  0.00000000E+00
  0.00000000E+00  0.00000000E+00  0.00000000E+00
  0.00000000E+00  0.00000000E+00  0.00000000E+00
  0.00000000E+00  0.00000000E+00  0.00000000E+00
  0.00000000E+00  0.00000000E+00  0.00000000E+00
  0.00000000E+00  0.00000000E+00  0.00000000E+00
  0.00000000E+00  0.00000000E+00  0.00000000E+00
  0.00000000E+00  0.00000000E+00  0.00000000E+00
  0.00000000E+00  0.00000000E+00  0.00000000E+00
  0.00000000E+00  0.00000000E+00  0.00000000E+00
  0.00000000E+00  0.00000000E+00  0.00000000E+00
  0.00000000E+00  0.00000000E+00  0.00000000E+00
  0.00000000E+00  0.00000000E+00  0.00000000E+00
  0.00000000E+00  0.00000000E+00  0.00000000E+00
  0.00000000E+00  0.00000000E+00  0.00000000E+00
  0.00000000E+00  0.00000000E+00  0.00000000E+00
  0.00000000E+00  0.00000000E+00  0.00000000E+00
  0.00000000E+00  0.00000000E+00  0.00000000E+00
  0.00000000E+00  0.00000000E+00  0.00000000E+00
  0.00000000E+00  0.00000000E+00  0.00000000E+00
  0.00000000E+00  0.00000000E+00  0.00000000E+00
  0.00000000E+00  0.00000000E+00  0.00000000E+00
  0.00000000E+00  0.00000000E+00  0.00000000E+00
  0.00000000E+00  0.00000000E+00  0.00000000E+00
  0.00000000E+00  0.00000000E+00  0.00000000E+00
  0.00000000E+00  0.00000000E+00  0.00000000E+00
  0.00000000E+00  0.00000000E+00  0.00000000E+00
  0.00000000E+00  0.00000000E+00  0.00000000E+00
  0.00000000E+00  0.00000000E+00  0.00000000E+00
  0.00000000E+00  0.00000000E+00  0.00000000E+00
  0.00000000E+00  0.00000000E+00  0.00000000E+00
  0.00000000E+00  0.00000000E+00  0.00000000E+00
  0.00000000E+00  0.00000000E+00  0.00000000E+00
  0.00000000E+00  0.00000000E+00  0.00000000E+00
  0.00000000E+00  0.00000000E+00  0.00000000E+00
  0.00000000E+00  0.00000000E+00  0.00000000E+00
  0.00000000E+00  0.00000000E+00  0.00000000E+00
  0.00000000E+00  0.00000000E+00  0.00000000E+00
  0.00000000E+00  0.00000000E+00  0.00000000E+00
  0.00000000E+00  0.00000000E+00  0.00000000E+00
  0.00000000E+00  0.00000000E+00  0.00000000E+00
  0.00000000E+00  0.00000000E+00  0.00000000E+00
  0.00000000E+00  0.00000000E+00  0.00000000E+00
  0.00000000E+00  0.00000000E+00  0.00000000E+00
  0.00000000E+00  0.00000000E+00  0.00000000E+00
  0.00000000E+00  0.00000000E+00  0.00000000E+00
  0.00000000E+00  0.00000000E+00  0.00000000E+00
  0.00000000E+00  0.00000000E+00  0.00000000E+00
  0.00000000E+00  0.00000000E+00  0.00000000E+00
  0.00000000E+00  0.00000000E+00  0.00000000E+00
  0.00000000E+00  0.00000000E+00  0.00000000E+00
  0.00000000E+00  0.00000000E+00  0.00000000E+00
  0.00000000E+00  0.00000000E+00  0.00000000E+00
  0.00000000E+00  0.00000000E+00  0.00000000E+00
  0.00000000E+00  0.00000000E+00  0.00000000E+00
  0.00000000E+00  0.00000000E+00  0.00000000E+00
  0.00000000E+00  0.00000000E+00  0.00000000E+00
  0.00000000E+00  0.00000000E+00  0.00000000E+00
  0.00000000E+00  0.00000000E+00  0.00000000E+00
  0.00000000E+00  0.00000000E+00  0.00000000E+00
  0.00000000E+00  0.00000000E+00  0.00000000E+00
  0.00000000E+00  0.00000000E+00  0.00000000E+00
  0.00000000E+00  0.00000000E+00  0.00000000E+00
  0.00000000E+00  0.00000000E+00  0.00000000E+00
  0.00000000E+00  0.00000000E+00  0.00000000E+00
  0.00000000E+00  0.00000000E+00  0.00000000E+00
  0.00000000E+00  0.00000000E+00  0.00000000E+00
  0.00000000E+00  0.00000000E+00  0.00000000E+00
  0.00000000E+00  0.00000000E+00  0.00000000E+00
  0.00000000E+00  0.00000000E+00  0.00000000E+00
  0.00000000E+00  0.00000000E+00  0.00000000E+00
  0.00000000E+00  0.00000000E+00  0.00000000E+00
