CeO2-110-l3-p23:                        
   1.00000000000000     
    10.9800000000000004    0.0000000000000000    0.0000000000000000
     0.0000000000000000   11.6460486861424357    0.0000000000000000
     0.0000000000000000    0.0000000000000000   24.7050405717853714
    36    71     1     3     1
Selective dynamics
Direct
  0.7712027356029978  0.1666667660079995  0.0000000000000000   F   F   F
  0.7712027356029978  0.5000000993410012  0.0000000000000000   F   F   F
  0.2712027356029978  0.1666667660079995  0.0000000000000000   F   F   F
  0.7712027356029978  0.8333334326740029  0.0000000000000000   F   F   F
  0.2712027356029978  0.5000000993410012  0.0000000000000000   F   F   F
  0.2712027356029978  0.8333334326740029  0.0000000000000000   F   F   F
  0.5212027356029978  0.0000000993410012  0.0785672911050028   F   F   F
  0.5212027356029978  0.6666667660079995  0.0785672911050028   F   F   F
  0.0212027356029978  0.0000000993410012  0.0785672911050028   F   F   F
  0.5212027356029978  0.3333334326740029  0.0785672911050028   F   F   F
  0.0212027356029978  0.3333334326740029  0.0785672911050028   F   F   F
  0.0212027356029978  0.6666667660079995  0.0785672911050028   F   F   F
  0.7707655463369590  0.1675017848669960  0.1574299803799149   T   T   T
  0.7705638939794156  0.8333623244908124  0.1570471894868745   T   T   T
  0.2711415455028265  0.1676640543940962  0.1582482754443750   T   T   T
  0.7705125148718224  0.4991684142882561  0.1577938810866681   T   T   T
  0.2718446715021351  0.4996467941151396  0.1566541806591218   T   T   T
  0.2718197527743604  0.8323619379923789  0.1568259218906179   T   T   T
  0.0187501653919387  0.6673521583699277  0.2325495865092465   T   T   T
  0.5230567627295329  0.6649532324581175  0.2361111669579798   T   T   T
  0.0189333063418140  0.3323330802821535  0.2347164128428426   T   T   T
  0.0230092345958349  0.0007227884771036  0.2329124096564462   T   T   T
  0.5235377003236955  0.0006743866035792  0.2339440989917368   T   T   T
  0.5216022251795872  0.3332090156346064  0.2366717315019731   T   T   T
  0.7690948821501639  0.4997334735984028  0.3176471291126570   T   T   T
  0.7752164922038364  0.1657543622480789  0.3165365274469238   T   T   T
  0.2634632191702646  0.5005394173217322  0.3111245171683696   T   T   T
  0.2736670674763632  0.8321071007894431  0.3124023273073008   T   T   T
  0.2723346027837424  0.1660767298404250  0.3183320323052232   T   T   T
  0.7756850742250997  0.8349052440677167  0.3144231290562743   T   T   T
  0.0219462647436095  0.0053813523864472  0.3849958684584500   T   T   T
  0.5263389458640653  0.0024329104678939  0.3851406634695209   T   T   T
  0.0196273757256124  0.6637876845831608  0.3841687995072466   T   T   T
  0.5395873554903773  0.6775416479226029  0.3928632037288824   T   T   T
  0.0236108905950382  0.3337935305193877  0.3882400834543842   T   T   T
  0.5323390472928486  0.3174376250121828  0.3918652850785584   T   T   T
  0.6462027356029978  0.3333334326740029  0.0000000000000000   F   F   F
  0.1462027356029978  0.0000000993410012  0.0000000000000000   F   F   F
  0.6462027356029978  0.6666667660079995  0.0000000000000000   F   F   F
  0.8962027356029978  0.0000000993410012  0.0000000000000000   F   F   F
  0.8962027356029978  0.3333334326740029  0.0000000000000000   F   F   F
  0.1462027356029978  0.3333334326740029  0.0000000000000000   F   F   F
  0.3962027356029978  0.6666667660079995  0.0000000000000000   F   F   F
  0.3962027356029978  0.0000000993410012  0.0000000000000000   F   F   F
  0.6462027356029978  0.0000000993410012  0.0000000000000000   F   F   F
  0.3962027356029978  0.3333334326740029  0.0000000000000000   F   F   F
  0.8962027356029978  0.6666667660079995  0.0000000000000000   F   F   F
  0.1462027356029978  0.6666667660079995  0.0000000000000000   F   F   F
  0.3962027356029978  0.8333334326740029  0.0785672911050028   F   F   F
  0.6462027356029978  0.8333334326740029  0.0785672911050028   F   F   F
  0.3962027356029978  0.1666667660079995  0.0785672911050028   F   F   F
  0.1462027356029978  0.1666667660079995  0.0785672911050028   F   F   F
  0.8962027356029978  0.1666667660079995  0.0785672911050028   F   F   F
  0.8962027356029978  0.8333334326740029  0.0785672911050028   F   F   F
  0.6462027356029978  0.1666667660079995  0.0785672911050028   F   F   F
  0.1462027356029978  0.8333334326740029  0.0785672911050028   F   F   F
  0.3962027356029978  0.5000000993410012  0.0785672911050028   F   F   F
  0.1462027356029978  0.5000000993410012  0.0785672911050028   F   F   F
  0.8962027356029978  0.5000000993410012  0.0785672911050028   F   F   F
  0.6462027356029978  0.5000000993410012  0.0785672911050028   F   F   F
  0.6466119733865998 -0.0001286511908411  0.1564045953723011   T   T   T
  0.3965340440478692  0.6660607215859918  0.1569949780860311   T   T   T
  0.6457338052574115  0.6651662726103713  0.1578943664340002   T   T   T
  0.8950836018550067  0.6666326770427089  0.1563014634669892   T   T   T
  0.1477043967748632  0.0002875297953514  0.1560523349423976   T   T   T
  0.8961232312902730  0.0002755964466172  0.1565706549701096   T   T   T
  0.3964784302781360  0.0003712506298601  0.1582761341599266   T   T   T
  0.1465457702268482  0.6662533010218998  0.1561933742558786   T   T   T
  0.3961798893092444  0.3327062333033715  0.1576992238270331   T   T   T
  0.8954256288082700  0.3332458914574589  0.1565987197594663   T   T   T
  0.6452449517216804  0.3348357265310436  0.1576678432131602   T   T   T
  0.1463699476217915  0.3334667487077014  0.1573420838794715   T   T   T
  0.6454621832968028  0.1674306200504514  0.2339738196648368   T   T   T
  0.6459263967267714  0.8334643096378388  0.2345171083932999   T   T   T
  0.3966931102077332  0.8272453607245472  0.2363773164552396   T   T   T
  0.8944497022695437  0.4993566689827478  0.2346501998120186   T   T   T
  0.1481012761475096  0.8338371020191815  0.2333822169480854   T   T   T
  0.6442369457501360  0.4988160592267599  0.2375352994523605   T   T   T
  0.3968356744413822  0.1704885138910950  0.2388388305077487   T   T   T
  0.8970113101755064  0.1673747153830778  0.2347978143750763   T   T   T
  0.3945107597317561  0.5000648881557540  0.2351391028212669   T   T   T
  0.1442365862807979  0.5020343989568812  0.2348799513845639   T   T   T
  0.1465148171047718  0.1643413471680125  0.2351131171768007   T   T   T
  0.8974827208528520  0.8336518631690011  0.2339681673986838   T   T   T
  0.6490373239992928  0.3274305850697533  0.3142288985203932   T   T   T
  0.8998238098749215  0.0003513881165406  0.3110136689656934   T   T   T
  0.1444609419055010  0.6746441670755954  0.3114108861200520   T   T   T
  0.3939173038987113  0.3455542328690985  0.3212135642702043   T   T   T
  0.6487966848812344  0.0023980641397891  0.3102708380663770   T   T   T
  0.6534552360052571  0.6703028453489095  0.3128844194633420   T   T   T
  0.3994068294481150  0.9929280454493000  0.3120485703060868   T   T   T
  0.8980902141394395  0.6650151445550422  0.3106224260326264   T   T   T
  0.3978895111659409  0.6580962009581046  0.3201249101239136   T   T   T
  0.8945941360894923  0.3352617038120170  0.3134678210414025   T   T   T
  0.1469272245824454  0.3316609874213799  0.3108999812116464   T   T   T
  0.1484222194491338  0.9944271232540476  0.3125390429434555   T   T   T
  0.6438648497111611  0.8433667550403422  0.3880421952856682   T   T   T
  0.1511753414779036  0.8407138498100704  0.3982843850282085   T   T   T
  0.3916777183915274  0.8351713357755101  0.3965080816858910   T   T   T
  0.4036382988689047  0.1518892177254119  0.3909365089780515   T   T   T
  0.1461067429552012  0.1580346346297249  0.3905397022318882   T   T   T
  0.9110976968313563  0.8311663400658892  0.3871017904170889   T   T   T
  0.9028668075574651  0.1572537971350060  0.3907800948138191   T   T   T
  0.6490383272340756  0.1533955516009447  0.3934773928280471   T   T   T
  0.8991744342105717  0.5123767782859634  0.3918128661229908   T   T   T
  0.6182868086720836  0.5040516346102968  0.3897390341733715   T   T   T
  0.1548203901961738  0.5087299216441773  0.3879592493275585   T   T   T
  0.2738495906558242  0.7625624388164852  0.4473731549702405   T   T   T
  0.4117125964265099  0.6555963873415133  0.4731369986722426   T   T   T
  0.5271798365582797  0.7098619064870001  0.4829444467270716   T   T   T
  0.1056799611557757  0.6892266789397815  0.5363150980998160   T   T   T
  0.1710053567892592  0.7132797739317394  0.5008452923910018   T   T   T
