CeO2-110-l3-p23:                        
   1.00000000000000     
    10.9800000000000004    0.0000000000000000    0.0000000000000000
     0.0000000000000000   11.6460486861424357    0.0000000000000000
     0.0000000000000000    0.0000000000000000   24.7050405717853714
    35    72     2
Selective dynamics
Direct
  0.7712027356029978  0.1666667660079995  0.0000000000000000   F   F   F
  0.7712027356029978  0.5000000993410012  0.0000000000000000   F   F   F
  0.2712027356029978  0.1666667660079995  0.0000000000000000   F   F   F
  0.7712027356029978  0.8333334326740029  0.0000000000000000   F   F   F
  0.2712027356029978  0.5000000993410012  0.0000000000000000   F   F   F
  0.2712027356029978  0.8333334326740029  0.0000000000000000   F   F   F
  0.5212027356029978  0.0000000993410012  0.0785672911050028   F   F   F
  0.5212027356029978  0.6666667660079995  0.0785672911050028   F   F   F
  0.0212027356029978  0.0000000993410012  0.0785672911050028   F   F   F
  0.5212027356029978  0.3333334326740029  0.0785672911050028   F   F   F
  0.0212027356029978  0.3333334326740029  0.0785672911050028   F   F   F
  0.0212027356029978  0.6666667660079995  0.0785672911050028   F   F   F
  0.7707721948671780  0.1668442523900147  0.1575310091114546   T   T   T
  0.7707371717631736  0.8329783205906262  0.1573784836466828   T   T   T
  0.2718037120688341  0.1668419435737570  0.1575308089562084   T   T   T
  0.7707421081344138  0.4995598427267497  0.1575920009728233   T   T   T
  0.2718434888515383  0.4995380411591782  0.1576108542504763   T   T   T
  0.2718090024008720  0.8329795721598503  0.1573744266367348   T   T   T
  0.0213521876011461  0.6660138332719338  0.2330222139675484   T   T   T
  0.5213822720794264  0.6657182822113094  0.2342903775955781   T   T   T
  0.0213840312628635  0.3330666928493290  0.2335129738328811   T   T   T
  0.0213484906215962 -0.0000261958079134  0.2329482423869578   T   T   T
  0.5213504184046990  0.0002090852202654  0.2340090618998942   T   T   T
  0.5213670745452497  0.3331497260054260  0.2350343285726733   T   T   T
  0.7726479736491295  0.5003176893136593  0.3167971212910906   T   T   T
  0.7729903086528063  0.1648175877951301  0.3161231527319376   T   T   T
  0.2701817774864143  0.5003526683780314  0.3168018665377356   T   T   T
  0.2697448202610871  0.8331099281604032  0.3153579308227475   T   T   T
  0.2698791326548175  0.1648013018237753  0.3161803461685919   T   T   T
  0.7731340794567908  0.8331213025206082  0.3154061083471540   T   T   T
  0.0214337697660029  0.9991361372758054  0.3845702269290648   T   T   T
  0.5214484838776657  0.9958060069949306  0.3850052939397958   T   T   T
  0.0214589887526321  0.6674508399937026  0.3842718990004111   T   T   T
  0.5214736684840648  0.6852277799795913  0.3869452228967479   T   T   T
  0.0214525272493496  0.3308080247744082  0.3843403225390330   T   T   T
  0.6462027356029978  0.3333334326740029  0.0000000000000000   F   F   F
  0.1462027356029978  0.0000000993410012  0.0000000000000000   F   F   F
  0.6462027356029978  0.6666667660079995  0.0000000000000000   F   F   F
  0.8962027356029978  0.0000000993410012  0.0000000000000000   F   F   F
  0.8962027356029978  0.3333334326740029  0.0000000000000000   F   F   F
  0.1462027356029978  0.3333334326740029  0.0000000000000000   F   F   F
  0.3962027356029978  0.6666667660079995  0.0000000000000000   F   F   F
  0.3962027356029978  0.0000000993410012  0.0000000000000000   F   F   F
  0.6462027356029978  0.0000000993410012  0.0000000000000000   F   F   F
  0.3962027356029978  0.3333334326740029  0.0000000000000000   F   F   F
  0.8962027356029978  0.6666667660079995  0.0000000000000000   F   F   F
  0.1462027356029978  0.6666667660079995  0.0000000000000000   F   F   F
  0.3962027356029978  0.8333334326740029  0.0785672911050028   F   F   F
  0.6462027356029978  0.8333334326740029  0.0785672911050028   F   F   F
  0.3962027356029978  0.1666667660079995  0.0785672911050028   F   F   F
  0.1462027356029978  0.1666667660079995  0.0785672911050028   F   F   F
  0.8962027356029978  0.1666667660079995  0.0785672911050028   F   F   F
  0.8962027356029978  0.8333334326740029  0.0785672911050028   F   F   F
  0.6462027356029978  0.1666667660079995  0.0785672911050028   F   F   F
  0.1462027356029978  0.8333334326740029  0.0785672911050028   F   F   F
  0.3962027356029978  0.5000000993410012  0.0785672911050028   F   F   F
  0.1462027356029978  0.5000000993410012  0.0785672911050028   F   F   F
  0.8962027356029978  0.5000000993410012  0.0785672911050028   F   F   F
  0.6462027356029978  0.5000000993410012  0.0785672911050028   F   F   F
  0.6465262455540182 -0.0002108743237725  0.1569856069309095   T   T   T
  0.3962359739966579  0.6657153684888085  0.1569267504434476   T   T   T
  0.6463785630108493  0.6656547726004315  0.1569027861815117   T   T   T
  0.8959482222433324  0.6661654632352914  0.1567615307123194   T   T   T
  0.1467402172617431 -0.0000931912074091  0.1566293327563624   T   T   T
  0.8958353453769321 -0.0000890297258409  0.1566386042228840   T   T   T
  0.3960782350521515 -0.0002207742217176  0.1569495599379745   T   T   T
  0.1466659116180085  0.6661171376508324  0.1567774931835725   T   T   T
  0.3964943047986028  0.3337330962612652  0.1572113416262768   T   T   T
  0.8960084417551180  0.3334122105376082  0.1568725350649691   T   T   T
  0.6461506536767769  0.3337762092917398  0.1572020888394973   T   T   T
  0.1466215620507606  0.3333952313991995  0.1568483257107147   T   T   T
  0.6468289182160110  0.1674780143446512  0.2351302141062575   T   T   T
  0.6463933243725045  0.8310353689401542  0.2349435092287607   T   T   T
  0.3962496367344859  0.8311489258999428  0.2349539616835948   T   T   T
  0.8961034644407592  0.4996376800360136  0.2356300615473563   T   T   T
  0.1459778662455150  0.8331611425453417  0.2347445452103081   T   T   T
  0.6466452894071389  0.4995498191641654  0.2361245243760700   T   T   T
  0.3958889942364845  0.1674470305073063  0.2351243456703113   T   T   T
  0.8967900385959315  0.1662046305214390  0.2350218424198227   T   T   T
  0.3960501246854352  0.4995585827027254  0.2361099894560737   T   T   T
  0.1466522002862296  0.4995796491951769  0.2356405312604873   T   T   T
  0.1459079451734507  0.1662019547413985  0.2350160885271669   T   T   T
  0.8967105970241843  0.8331625631718880  0.2347434338636509   T   T   T
  0.6506067742278592  0.3359230626752122  0.3153578301437125   T   T   T
  0.8973471273326605  0.9991801504328583  0.3123305034674165   T   T   T
  0.1460946440948717  0.6666136641352465  0.3120830295828509   T   T   T
  0.3923736783425389  0.3359655976598387  0.3154034978410541   T   T   T
  0.6474901597792810  0.9961986272558726  0.3112800982473616   T   T   T
  0.6455606689978119  0.6664316190351084  0.3142386477257878   T   T   T
  0.3953731428089231  0.9962982572689334  0.3113006515522513   T   T   T
  0.8968024789196931  0.6666627489416900  0.3121095012796394   T   T   T
  0.3973456041917620  0.6664237989233393  0.3142269420364080   T   T   T
  0.8974646620630777  0.3325434345375428  0.3126045749367021   T   T   T
  0.1453627421959355  0.3324908280053980  0.3126115501943731   T   T   T
  0.1455449204029429 -0.0008151625185383  0.3123305534542967   T   T   T
  0.6428894628469524  0.8364762253282708  0.3919569175692915   T   T   T
  0.1397193637053140  0.8326335459862997  0.3895862396268611   T   T   T
  0.4000613541870283  0.8365379959274515  0.3919062789277008   T   T   T
  0.3951850105867225  0.1514115017794721  0.3938505045680304   T   T   T
  0.1390457611172120  0.1653059480395953  0.3898929519885910   T   T   T
  0.9031302515071162  0.8327272205914236  0.3896133477072160   T   T   T
  0.9040584444097771  0.1654066104157778  0.3898563790916569   T   T   T
  0.6478004593280299  0.1512868649966525  0.3938557421153121   T   T   T
  0.3734043543064346  0.5276241828659265  0.4057653297025968   T   T   T
  0.9039832310418895  0.5005016312753712  0.3892275418522303   T   T   T
  0.6688810063180126  0.5270404074601853  0.4055877588449697   T   T   T
  0.1388074791255633  0.5004549150571442  0.3892024915088229   T   T   T
  0.5215417709978799  0.2496271939729522  0.3583268651409945   T   T   T
  0.5210066031076311  0.4488692501122185  0.4185298768197042   T   T   T
