CeO2-110-l3-p23:                        
   1.00000000000000     
    10.9800000000000004    0.0000000000000000    0.0000000000000000
     0.0000000000000000   11.6460486861424357    0.0000000000000000
     0.0000000000000000    0.0000000000000000   24.7050405717853714
   Ce   O    Pt   O    C    O 
    36    72     1     1     1     2
Selective dynamics
Direct
  0.7712027356029978  0.1666667660079995  0.0000000000000000   F   F   F
  0.7712027356029978  0.5000000993410012  0.0000000000000000   F   F   F
  0.2712027356029978  0.1666667660079995  0.0000000000000000   F   F   F
  0.7712027356029978  0.8333334326740029  0.0000000000000000   F   F   F
  0.2712027356029978  0.5000000993410012  0.0000000000000000   F   F   F
  0.2712027356029978  0.8333334326740029  0.0000000000000000   F   F   F
  0.5212027356029978  0.0000000993410012  0.0785672911050028   F   F   F
  0.5212027356029978  0.6666667660079995  0.0785672911050028   F   F   F
  0.0212027356029978  0.0000000993410012  0.0785672911050028   F   F   F
  0.5212027356029978  0.3333334326740029  0.0785672911050028   F   F   F
  0.0212027356029978  0.3333334326740029  0.0785672911050028   F   F   F
  0.0212027356029978  0.6666667660079995  0.0785672911050028   F   F   F
  0.7709343975074883  0.1677353749963309  0.1576267186838986   T   T   T
  0.7708891950282971  0.8331785096617553  0.1575893437104738   T   T   T
  0.2706142225410904  0.1667840945020810  0.1579909363798314   T   T   T
  0.7711580714401786  0.4994872424068923  0.1577396765767690   T   T   T
  0.2704500314211105  0.5003135139322603  0.1580839634932189   T   T   T
  0.2709799186212370  0.8331349842148366  0.1564590593389255   T   T   T
  0.0190665294499732  0.6663276134410868  0.2343468393992160   T   T   T
  0.5214973297101602  0.6658317824642160  0.2342701110326743   T   T   T
  0.0211794370356897  0.3335864698900328  0.2353624254022318   T   T   T
  0.0191216589833840  0.0009886212321507  0.2331311190487060   T   T   T
  0.5215707089253596  0.0007787562362767  0.2341270614275572   T   T   T
  0.5202774289529369  0.3336235913580972  0.2344863977789387   T   T   T
  0.7731891807452459  0.4998471240246640  0.3172985770494686   T   T   T
  0.7723573303889540  0.1681013131871785  0.3168285836769379   T   T   T
  0.2672755570991129  0.5011763050732175  0.3177905889800061   T   T   T
  0.2677164593115371  0.8338562679828357  0.3108866929775654   T   T   T
  0.2678943382862134  0.1659898691682051  0.3174581084129725   T   T   T
  0.7708220443144236  0.8333565231349432  0.3166782458517619   T   T   T
  0.0165563106175264  0.0053177336680694  0.3847249452067476   T   T   T
  0.5244225502163264  0.0087171519693542  0.3862117939492650   T   T   T
  0.0169654037946717  0.6621462396040633  0.3886547427797843   T   T   T
  0.5241143609103581  0.6583573706405554  0.3863363710636525   T   T   T
  0.0202322041424969  0.3337950726023189  0.3896909512176210   T   T   T
  0.5203696217298097  0.3337513346013553  0.3852052624113568   T   T   T
  0.6462027356029978  0.3333334326740029  0.0000000000000000   F   F   F
  0.1462027356029978  0.0000000993410012  0.0000000000000000   F   F   F
  0.6462027356029978  0.6666667660079995  0.0000000000000000   F   F   F
  0.8962027356029978  0.0000000993410012  0.0000000000000000   F   F   F
  0.8962027356029978  0.3333334326740029  0.0000000000000000   F   F   F
  0.1462027356029978  0.3333334326740029  0.0000000000000000   F   F   F
  0.3962027356029978  0.6666667660079995  0.0000000000000000   F   F   F
  0.3962027356029978  0.0000000993410012  0.0000000000000000   F   F   F
  0.6462027356029978  0.0000000993410012  0.0000000000000000   F   F   F
  0.3962027356029978  0.3333334326740029  0.0000000000000000   F   F   F
  0.8962027356029978  0.6666667660079995  0.0000000000000000   F   F   F
  0.1462027356029978  0.6666667660079995  0.0000000000000000   F   F   F
  0.3962027356029978  0.8333334326740029  0.0785672911050028   F   F   F
  0.6462027356029978  0.8333334326740029  0.0785672911050028   F   F   F
  0.3962027356029978  0.1666667660079995  0.0785672911050028   F   F   F
  0.1462027356029978  0.1666667660079995  0.0785672911050028   F   F   F
  0.8962027356029978  0.1666667660079995  0.0785672911050028   F   F   F
  0.8962027356029978  0.8333334326740029  0.0785672911050028   F   F   F
  0.6462027356029978  0.1666667660079995  0.0785672911050028   F   F   F
  0.1462027356029978  0.8333334326740029  0.0785672911050028   F   F   F
  0.3962027356029978  0.5000000993410012  0.0785672911050028   F   F   F
  0.1462027356029978  0.5000000993410012  0.0785672911050028   F   F   F
  0.8962027356029978  0.5000000993410012  0.0785672911050028   F   F   F
  0.6462027356029978  0.5000000993410012  0.0785672911050028   F   F   F
  0.6457933244060535  0.9995853326740229  0.1573941759438831   T   T   T
  0.3960025958353249  0.6664854169229844  0.1570305288423119   T   T   T
  0.6458069642574726  0.6672129497739422  0.1573720262487977   T   T   T
  0.8952670942194028  0.6665789528294960  0.1568736239897713   T   T   T
  0.1462213863164785  0.0002570591628531  0.1565056900228988   T   T   T
  0.8949862740103639  0.0003142104524984  0.1565809552579038   T   T   T
  0.3959939410507829  0.0004087843014217  0.1570018315351685   T   T   T
  0.1461123100941749  0.6661537835801798  0.1567538447675950   T   T   T
  0.3955788483431488  0.3332571898237109  0.1578857516380592   T   T   T
  0.8957894120730387  0.3336294244518770  0.1569070136652287   T   T   T
  0.6456551153607406  0.3335571334870626  0.1569212838524789   T   T   T
  0.1464711547344145  0.3340839943530203  0.1574949542880933   T   T   T
  0.6450543438046016  0.1675277951805043  0.2350616700686245   T   T   T
  0.6450697637366023  0.8334267719061735  0.2364860201745986   T   T   T
  0.3950659022069740  0.8336540644254028  0.2346958045503696   T   T   T
  0.8960583349320809  0.4996176122188895  0.2352890076162947   T   T   T
  0.1464264547508203  0.8329739295577195  0.2338892697409670   T   T   T
  0.6451473873935580  0.4996660765014252  0.2352390715840344   T   T   T
  0.3955623098118048  0.1639408751323702  0.2369199209129692   T   T   T
  0.8959211069926477  0.1680863587836597  0.2349995479258568   T   T   T
  0.3956560236744382  0.5025068038256825  0.2366075054804056   T   T   T
  0.1452133299224077  0.5018905677196618  0.2364363305873654   T   T   T
  0.1452906693220410  0.1662965012225589  0.2352500453119159   T   T   T
  0.8955976670311562  0.8333215523870937  0.2348755885063040   T   T   T
  0.6442600353960691  0.3334387256412599  0.3135228349376153   T   T   T
  0.8936872733901668  0.0011334725872099  0.3108299232944804   T   T   T
  0.1435952692084358  0.6740878366845990  0.3137261428014465   T   T   T
  0.3957219839854755  0.3334119084639880  0.3136704377691354   T   T   T
  0.6449528201835225  0.0041711812833680  0.3136726789451500   T   T   T
  0.6453433957142164  0.6635927685522351  0.3139039464475378   T   T   T
  0.3966607546503684  0.9926220642438646  0.3162336305426646   T   T   T
  0.8938502194744991  0.6665927956210682  0.3121141032029877   T   T   T
  0.3968245473525419  0.6736449561207183  0.3157063050449817   T   T   T
  0.8939623503372088  0.3339035997763407  0.3135877964485070   T   T   T
  0.1481757790941450  0.3318671088902744  0.3132818054761884   T   T   T
  0.1433144414590189  0.9965125943516132  0.3108335742703466   T   T   T
  0.6281849549276904  0.8349298335530644  0.3882644877392964   T   T   T
  0.1555209680545787  0.8456918710903136  0.3937235500134875   T   T   T
  0.3915828870481456  0.8282169961414698  0.4055468114103962   T   T   T
  0.4033667962287364  0.1660791351741321  0.3910098926321497   T   T   T
  0.1422057506954665  0.1550555246469171  0.3904306447122552   T   T   T
  0.9057125928818355  0.8356595148195265  0.3876070576526899   T   T   T
  0.8961979484788752  0.1567850640187900  0.3912994927193021   T   T   T
  0.6389666852066332  0.1682412000657021  0.3924700752119102   T   T   T
  0.4037035728112142  0.5002922194622300  0.3910930808406340   T   T   T
  0.8966027096114336  0.5102686083704753  0.3922052614994361   T   T   T
  0.6393419885550060  0.4979768464826062  0.3923235412201010   T   T   T
  0.1420488295187651  0.5078414487239143  0.3886960975759021   T   T   T
  0.2594340498996713  0.7873408076895055  0.4536869718989930   T   T   T
  0.4162596981054135  0.6929256700241258  0.5454488859721377   T   T   T
  0.3481930083901372  0.7279334097845351  0.5132072267184468   T   T   T
  0.1004488179095685  0.7106366596337197  0.4769621056898328   T   T   T
  0.1833097284499060  0.7769826816200722  0.5305241006747653   T   T   T
 
  0.00000000E+00  0.00000000E+00  0.00000000E+00
  0.00000000E+00  0.00000000E+00  0.00000000E+00
  0.00000000E+00  0.00000000E+00  0.00000000E+00
  0.00000000E+00  0.00000000E+00  0.00000000E+00
  0.00000000E+00  0.00000000E+00  0.00000000E+00
  0.00000000E+00  0.00000000E+00  0.00000000E+00
  0.00000000E+00  0.00000000E+00  0.00000000E+00
  0.00000000E+00  0.00000000E+00  0.00000000E+00
  0.00000000E+00  0.00000000E+00  0.00000000E+00
  0.00000000E+00  0.00000000E+00  0.00000000E+00
  0.00000000E+00  0.00000000E+00  0.00000000E+00
  0.00000000E+00  0.00000000E+00  0.00000000E+00
  0.00000000E+00  0.00000000E+00  0.00000000E+00
  0.00000000E+00  0.00000000E+00  0.00000000E+00
  0.00000000E+00  0.00000000E+00  0.00000000E+00
  0.00000000E+00  0.00000000E+00  0.00000000E+00
  0.00000000E+00  0.00000000E+00  0.00000000E+00
  0.00000000E+00  0.00000000E+00  0.00000000E+00
  0.00000000E+00  0.00000000E+00  0.00000000E+00
  0.00000000E+00  0.00000000E+00  0.00000000E+00
  0.00000000E+00  0.00000000E+00  0.00000000E+00
  0.00000000E+00  0.00000000E+00  0.00000000E+00
  0.00000000E+00  0.00000000E+00  0.00000000E+00
  0.00000000E+00  0.00000000E+00  0.00000000E+00
  0.00000000E+00  0.00000000E+00  0.00000000E+00
  0.00000000E+00  0.00000000E+00  0.00000000E+00
  0.00000000E+00  0.00000000E+00  0.00000000E+00
  0.00000000E+00  0.00000000E+00  0.00000000E+00
  0.00000000E+00  0.00000000E+00  0.00000000E+00
  0.00000000E+00  0.00000000E+00  0.00000000E+00
  0.00000000E+00  0.00000000E+00  0.00000000E+00
  0.00000000E+00  0.00000000E+00  0.00000000E+00
  0.00000000E+00  0.00000000E+00  0.00000000E+00
  0.00000000E+00  0.00000000E+00  0.00000000E+00
  0.00000000E+00  0.00000000E+00  0.00000000E+00
  0.00000000E+00  0.00000000E+00  0.00000000E+00
  0.00000000E+00  0.00000000E+00  0.00000000E+00
  0.00000000E+00  0.00000000E+00  0.00000000E+00
  0.00000000E+00  0.00000000E+00  0.00000000E+00
  0.00000000E+00  0.00000000E+00  0.00000000E+00
  0.00000000E+00  0.00000000E+00  0.00000000E+00
  0.00000000E+00  0.00000000E+00  0.00000000E+00
  0.00000000E+00  0.00000000E+00  0.00000000E+00
  0.00000000E+00  0.00000000E+00  0.00000000E+00
  0.00000000E+00  0.00000000E+00  0.00000000E+00
  0.00000000E+00  0.00000000E+00  0.00000000E+00
  0.00000000E+00  0.00000000E+00  0.00000000E+00
  0.00000000E+00  0.00000000E+00  0.00000000E+00
  0.00000000E+00  0.00000000E+00  0.00000000E+00
  0.00000000E+00  0.00000000E+00  0.00000000E+00
  0.00000000E+00  0.00000000E+00  0.00000000E+00
  0.00000000E+00  0.00000000E+00  0.00000000E+00
  0.00000000E+00  0.00000000E+00  0.00000000E+00
  0.00000000E+00  0.00000000E+00  0.00000000E+00
  0.00000000E+00  0.00000000E+00  0.00000000E+00
  0.00000000E+00  0.00000000E+00  0.00000000E+00
  0.00000000E+00  0.00000000E+00  0.00000000E+00
  0.00000000E+00  0.00000000E+00  0.00000000E+00
  0.00000000E+00  0.00000000E+00  0.00000000E+00
  0.00000000E+00  0.00000000E+00  0.00000000E+00
  0.00000000E+00  0.00000000E+00  0.00000000E+00
  0.00000000E+00  0.00000000E+00  0.00000000E+00
  0.00000000E+00  0.00000000E+00  0.00000000E+00
  0.00000000E+00  0.00000000E+00  0.00000000E+00
  0.00000000E+00  0.00000000E+00  0.00000000E+00
  0.00000000E+00  0.00000000E+00  0.00000000E+00
  0.00000000E+00  0.00000000E+00  0.00000000E+00
  0.00000000E+00  0.00000000E+00  0.00000000E+00
  0.00000000E+00  0.00000000E+00  0.00000000E+00
  0.00000000E+00  0.00000000E+00  0.00000000E+00
  0.00000000E+00  0.00000000E+00  0.00000000E+00
  0.00000000E+00  0.00000000E+00  0.00000000E+00
  0.00000000E+00  0.00000000E+00  0.00000000E+00
  0.00000000E+00  0.00000000E+00  0.00000000E+00
  0.00000000E+00  0.00000000E+00  0.00000000E+00
  0.00000000E+00  0.00000000E+00  0.00000000E+00
  0.00000000E+00  0.00000000E+00  0.00000000E+00
  0.00000000E+00  0.00000000E+00  0.00000000E+00
  0.00000000E+00  0.00000000E+00  0.00000000E+00
  0.00000000E+00  0.00000000E+00  0.00000000E+00
  0.00000000E+00  0.00000000E+00  0.00000000E+00
  0.00000000E+00  0.00000000E+00  0.00000000E+00
  0.00000000E+00  0.00000000E+00  0.00000000E+00
  0.00000000E+00  0.00000000E+00  0.00000000E+00
  0.00000000E+00  0.00000000E+00  0.00000000E+00
  0.00000000E+00  0.00000000E+00  0.00000000E+00
  0.00000000E+00  0.00000000E+00  0.00000000E+00
  0.00000000E+00  0.00000000E+00  0.00000000E+00
  0.00000000E+00  0.00000000E+00  0.00000000E+00
  0.00000000E+00  0.00000000E+00  0.00000000E+00
  0.00000000E+00  0.00000000E+00  0.00000000E+00
  0.00000000E+00  0.00000000E+00  0.00000000E+00
  0.00000000E+00  0.00000000E+00  0.00000000E+00
  0.00000000E+00  0.00000000E+00  0.00000000E+00
  0.00000000E+00  0.00000000E+00  0.00000000E+00
  0.00000000E+00  0.00000000E+00  0.00000000E+00
  0.00000000E+00  0.00000000E+00  0.00000000E+00
  0.00000000E+00  0.00000000E+00  0.00000000E+00
  0.00000000E+00  0.00000000E+00  0.00000000E+00
  0.00000000E+00  0.00000000E+00  0.00000000E+00
  0.00000000E+00  0.00000000E+00  0.00000000E+00
  0.00000000E+00  0.00000000E+00  0.00000000E+00
  0.00000000E+00  0.00000000E+00  0.00000000E+00
  0.00000000E+00  0.00000000E+00  0.00000000E+00
  0.00000000E+00  0.00000000E+00  0.00000000E+00
  0.00000000E+00  0.00000000E+00  0.00000000E+00
  0.00000000E+00  0.00000000E+00  0.00000000E+00
  0.00000000E+00  0.00000000E+00  0.00000000E+00
  0.00000000E+00  0.00000000E+00  0.00000000E+00
  0.00000000E+00  0.00000000E+00  0.00000000E+00
  0.00000000E+00  0.00000000E+00  0.00000000E+00
  0.00000000E+00  0.00000000E+00  0.00000000E+00
  0.00000000E+00  0.00000000E+00  0.00000000E+00
