CeO2-111-3x3-9layers         ! Comment
0                            ! Automatic Generation scheme
Gamma                        ! Generate a Gamma-Point Centered Grid
1   1   1                        ! Subdivisions N_1, N_2, and N_3 (K-mesh)
0.0 0.0 0.0                  ! optional shift of the mesh
EOF
