CeO2-110-l3-p23:                        
   1.00000000000000     
    10.9800000000000004    0.0000000000000000    0.0000000000000000
     0.0000000000000000   11.6460486861424357    0.0000000000000000
     0.0000000000000000    0.0000000000000000   24.7050405717853714
    36    72     1     1     1
Selective dynamics
Direct
  0.7712027356029978  0.1666667660079995  0.0000000000000000   F   F   F
  0.7712027356029978  0.5000000993410012  0.0000000000000000   F   F   F
  0.2712027356029978  0.1666667660079995  0.0000000000000000   F   F   F
  0.7712027356029978  0.8333334326740029  0.0000000000000000   F   F   F
  0.2712027356029978  0.5000000993410012  0.0000000000000000   F   F   F
  0.2712027356029978  0.8333334326740029  0.0000000000000000   F   F   F
  0.5212027356029978  0.0000000993410012  0.0785672911050028   F   F   F
  0.5212027356029978  0.6666667660079995  0.0785672911050028   F   F   F
  0.0212027356029978  0.0000000993410012  0.0785672911050028   F   F   F
  0.5212027356029978  0.3333334326740029  0.0785672911050028   F   F   F
  0.0212027356029978  0.3333334326740029  0.0785672911050028   F   F   F
  0.0212027356029978  0.6666667660079995  0.0785672911050028   F   F   F
  0.7706948169211704  0.1676911191897815  0.1576460188601092   T   T   T
  0.7708491665124001  0.8343812549684294  0.1568628266834550   T   T   T
  0.2712219692282490  0.1684706252301046  0.1583920683461257   T   T   T
  0.7707431638307217  0.4984019221307976  0.1575116113857928   T   T   T
  0.2715426422055283  0.4989270625108345  0.1569693735218737   T   T   T
  0.2716033369030816  0.8332660032230901  0.1568377469186508   T   T   T
  0.0189528439088098  0.6672114857377486  0.2322388509408331   T   T   T
  0.5231693554167274  0.6657695675699355  0.2338103780643549   T   T   T
  0.0200991413742160  0.3327205094065446  0.2357580248609232   T   T   T
  0.0219390031113117  0.0022507336648506  0.2330383150604959   T   T   T
  0.5217651962045650  0.0009194667206298  0.2342482043702684   T   T   T
  0.5218661188313169  0.3334123221687324  0.2371251316056190   T   T   T
  0.7730194887722983  0.4990486566336148  0.3163493862890197   T   T   T
  0.7719902900256088  0.1654061130754589  0.3174766300776501   T   T   T
  0.2669906870656976  0.5038347066318380  0.3124000000640351   T   T   T
  0.2704096016949937  0.8315854468431823  0.3121074380069384   T   T   T
  0.2728632811463983  0.1680179986851531  0.3196471524578834   T   T   T
  0.7725808368978969  0.8367590430884541  0.3137573024718960   T   T   T
  0.0225677861274598  0.0016092093591508  0.3842565140261937   T   T   T
  0.5237924557260835  0.0007927544870082  0.3868120365984289   T   T   T
  0.0130898091966063  0.6719342699942674  0.3840210310277870   T   T   T
  0.5368033073866050  0.6721284467281632  0.3864408805909808   T   T   T
  0.0170800065439699  0.3267681706081039  0.3911084984372069   T   T   T
  0.5302401385109901  0.3242364695926691  0.3929076526227469   T   T   T
  0.6462027356029978  0.3333334326740029  0.0000000000000000   F   F   F
  0.1462027356029978  0.0000000993410012  0.0000000000000000   F   F   F
  0.6462027356029978  0.6666667660079995  0.0000000000000000   F   F   F
  0.8962027356029978  0.0000000993410012  0.0000000000000000   F   F   F
  0.8962027356029978  0.3333334326740029  0.0000000000000000   F   F   F
  0.1462027356029978  0.3333334326740029  0.0000000000000000   F   F   F
  0.3962027356029978  0.6666667660079995  0.0000000000000000   F   F   F
  0.3962027356029978  0.0000000993410012  0.0000000000000000   F   F   F
  0.6462027356029978  0.0000000993410012  0.0000000000000000   F   F   F
  0.3962027356029978  0.3333334326740029  0.0000000000000000   F   F   F
  0.8962027356029978  0.6666667660079995  0.0000000000000000   F   F   F
  0.1462027356029978  0.6666667660079995  0.0000000000000000   F   F   F
  0.3962027356029978  0.8333334326740029  0.0785672911050028   F   F   F
  0.6462027356029978  0.8333334326740029  0.0785672911050028   F   F   F
  0.3962027356029978  0.1666667660079995  0.0785672911050028   F   F   F
  0.1462027356029978  0.1666667660079995  0.0785672911050028   F   F   F
  0.8962027356029978  0.1666667660079995  0.0785672911050028   F   F   F
  0.8962027356029978  0.8333334326740029  0.0785672911050028   F   F   F
  0.6462027356029978  0.1666667660079995  0.0785672911050028   F   F   F
  0.1462027356029978  0.8333334326740029  0.0785672911050028   F   F   F
  0.3962027356029978  0.5000000993410012  0.0785672911050028   F   F   F
  0.1462027356029978  0.5000000993410012  0.0785672911050028   F   F   F
  0.8962027356029978  0.5000000993410012  0.0785672911050028   F   F   F
  0.6462027356029978  0.5000000993410012  0.0785672911050028   F   F   F
  0.6459001804340030  0.0006633140531236  0.1565175581505897   T   T   T
  0.3961365996241831  0.6661014557142934  0.1565432805171921   T   T   T
  0.6464686539435652  0.6656823480658099  0.1570804744531243   T   T   T
  0.8949495270841284  0.6661632430636745  0.1562370512407834   T   T   T
  0.1473076674155687  0.0021541766273725  0.1568119093925101   T   T   T
  0.8959984268843488  0.0009815757060188  0.1562530568162399   T   T   T
  0.3958392449876242  0.0016494801313260  0.1579591009950419   T   T   T
  0.1466087921766916  0.6661501812025445  0.1564346930254971   T   T   T
  0.3962830588351011  0.3322048546035684  0.1579949583300085   T   T   T
  0.8960642083712238  0.3335821263148992  0.1570887539080598   T   T   T
  0.6454883210565516  0.3339792428294124  0.1575387139652383   T   T   T
  0.1463133561828521  0.3328966273425057  0.1570970488091314   T   T   T
  0.6450220916513111  0.1666567575232205  0.2348742210045985   T   T   T
  0.6456293653026793  0.8354637481662329  0.2338942389617640   T   T   T
  0.3958948818173101  0.8303875084980059  0.2350466386454007   T   T   T
  0.8967691612153939  0.4990029287253261  0.2351072495511468   T   T   T
  0.1473845992135234  0.8344117854565704  0.2337370888184750   T   T   T
  0.6451659577241488  0.4983376591312065  0.2362597148131465   T   T   T
  0.3963497537703577  0.1688579093319183  0.2395981339685561   T   T   T
  0.8965779222589316  0.1671909006488189  0.2346721554283017   T   T   T
  0.3941218197377392  0.5002197215930912  0.2354019525052494   T   T   T
  0.1469070782589338  0.4984230554062081  0.2351141845602419   T   T   T
  0.1465459831287314  0.1701386374806652  0.2372204797575333   T   T   T
  0.8971966620100622  0.8352531133504378  0.2333695695624785   T   T   T
  0.6488363308511043  0.3284590694524295  0.3144138581872055   T   T   T
  0.8985279168595475  0.0007729891182372  0.3108207254928513   T   T   T
  0.1423957929867352  0.6670710889084525  0.3082857058465491   T   T   T
  0.3952320920784411  0.3471928105746140  0.3195574525187311   T   T   T
  0.6457086629534640  0.0008679874177979  0.3117744367819499   T   T   T
  0.6504888494306094  0.6715530296155944  0.3104981562893306   T   T   T
  0.3978289187843896  0.9898620966588838  0.3147704142683725   T   T   T
  0.8938446777368051  0.6702670582972070  0.3100877956338300   T   T   T
  0.4039343874798794  0.6615001575110823  0.3145669666402588   T   T   T
  0.8952357227174746  0.3303499549984754  0.3138191493197718   T   T   T
  0.1474454268937740  0.3422629643822435  0.3177016251619082   T   T   T
  0.1481045161533937  0.9968653189775142  0.3116087017140823   T   T   T
  0.6419757184684258  0.8361980846306757  0.3888504974955393   T   T   T
  0.1503131865704191  0.8284286951606691  0.3904690838387933   T   T   T
  0.4008864679214044  0.8218336329264990  0.4059139136357788   T   T   T
  0.4031830131949020  0.1550962865536900  0.3905594622989405   T   T   T
  0.1449332245244026  0.1553629931968290  0.3911068511385366   T   T   T
  0.9041447235826674  0.8384400219277938  0.3891763765314943   T   T   T
  0.9021787706721979  0.1561964337853902  0.3918960868355404   T   T   T
  0.6460902966118888  0.1514964364767674  0.3942785989868239   T   T   T
  0.4197161426847345  0.4947946558424608  0.4298878767018738   T   T   T
  0.9100688777402083  0.5078500232762717  0.3887833965039688   T   T   T
  0.6424847042557532  0.5107155905324663  0.3874320628423841   T   T   T
  0.1667499205998630  0.5467383568706023  0.4015431772430782   T   T   T
  0.2733312851943657  0.6929828052302719  0.4203403429455129   T   T   T
  0.3422287461319272  0.5584674048736118  0.5097829832796023   T   T   T
  0.3575852653199381  0.5657778014523372  0.4606736106119134   T   T   T
