CeO2-110-l3-p23:                        
   1.00000000000000     
    10.9800000000000004    0.0000000000000000    0.0000000000000000
     0.0000000000000000   11.6460486861424357    0.0000000000000000
     0.0000000000000000    0.0000000000000000   24.7050405717853714
    35    71     2     2     1     1
Selective dynamics
Direct
  0.7712027356029978  0.1666667660079995  0.0000000000000000   F   F   F
  0.7712027356029978  0.5000000993410012  0.0000000000000000   F   F   F
  0.2712027356029978  0.1666667660079995  0.0000000000000000   F   F   F
  0.7712027356029978  0.8333334326740029  0.0000000000000000   F   F   F
  0.2712027356029978  0.5000000993410012  0.0000000000000000   F   F   F
  0.2712027356029978  0.8333334326740029  0.0000000000000000   F   F   F
  0.5212027356029978  0.0000000993410012  0.0785672911050028   F   F   F
  0.5212027356029978  0.6666667660079995  0.0785672911050028   F   F   F
  0.0212027356029978  0.0000000993410012  0.0785672911050028   F   F   F
  0.5212027356029978  0.3333334326740029  0.0785672911050028   F   F   F
  0.0212027356029978  0.3333334326740029  0.0785672911050028   F   F   F
  0.0212027356029978  0.6666667660079995  0.0785672911050028   F   F   F
  0.7719332695791984  0.1664298541698723  0.1572740817725704   T   T   T
  0.7714534822860049  0.8322798865303499  0.1579187894472032   T   T   T
  0.2725907361471310  0.1656805858605399  0.1574167409094647   T   T   T
  0.7713867494830471  0.5007594339936008  0.1567720675158245   T   T   T
  0.2727937769453420  0.5009059288441201  0.1576202690418598   T   T   T
  0.2728586321031361  0.8327507573055903  0.1575192272069218   T   T   T
  0.0238854806464885  0.6670308479870106  0.2343196869145652   T   T   T
  0.5217111465300838  0.6662358089957275  0.2365856311237160   T   T   T
  0.0254277131238794  0.3313121535090182  0.2329822789340848   T   T   T
  0.0241378429195431  0.9982458989848053  0.2334230518925137   T   T   T
  0.5237785142580887  0.0015797362598120  0.2347587932458412   T   T   T
  0.5198222146944461  0.3337443161794515  0.2336048024909683   T   T   T
  0.7749740428970060  0.4987860083969617  0.3110631889726804   T   T   T
  0.7764195914033502  0.1680689527822609  0.3140278855716517   T   T   T
  0.2659871801231088  0.4997976635960845  0.3164974918532076   T   T   T
  0.2791250496940132  0.8332548196302306  0.3167752490847333   T   T   T
  0.2735025316412444  0.1656718280402311  0.3169751445365075   T   T   T
  0.7742204560783977  0.8334953563963015  0.3173271508867473   T   T   T
  0.0275135414614739  0.0016812651402000  0.3847478706311255   T   T   T
  0.5221248472169777  0.9962343101397783  0.3872775375882979   T   T   T
  0.0303073224906461  0.6836436296251276  0.3879131829757627   T   T   T
  0.5305983833851271  0.6801454606754299  0.3939553936203442   T   T   T
  0.0149760765579797  0.3234274612388197  0.3853708918655676   T   T   T
  0.6462027356029978  0.3333334326740029  0.0000000000000000   F   F   F
  0.1462027356029978  0.0000000993410012  0.0000000000000000   F   F   F
  0.6462027356029978  0.6666667660079995  0.0000000000000000   F   F   F
  0.8962027356029978  0.0000000993410012  0.0000000000000000   F   F   F
  0.8962027356029978  0.3333334326740029  0.0000000000000000   F   F   F
  0.1462027356029978  0.3333334326740029  0.0000000000000000   F   F   F
  0.3962027356029978  0.6666667660079995  0.0000000000000000   F   F   F
  0.3962027356029978  0.0000000993410012  0.0000000000000000   F   F   F
  0.6462027356029978  0.0000000993410012  0.0000000000000000   F   F   F
  0.3962027356029978  0.3333334326740029  0.0000000000000000   F   F   F
  0.8962027356029978  0.6666667660079995  0.0000000000000000   F   F   F
  0.1462027356029978  0.6666667660079995  0.0000000000000000   F   F   F
  0.3962027356029978  0.8333334326740029  0.0785672911050028   F   F   F
  0.6462027356029978  0.8333334326740029  0.0785672911050028   F   F   F
  0.3962027356029978  0.1666667660079995  0.0785672911050028   F   F   F
  0.1462027356029978  0.1666667660079995  0.0785672911050028   F   F   F
  0.8962027356029978  0.1666667660079995  0.0785672911050028   F   F   F
  0.8962027356029978  0.8333334326740029  0.0785672911050028   F   F   F
  0.6462027356029978  0.1666667660079995  0.0785672911050028   F   F   F
  0.1462027356029978  0.8333334326740029  0.0785672911050028   F   F   F
  0.3962027356029978  0.5000000993410012  0.0785672911050028   F   F   F
  0.1462027356029978  0.5000000993410012  0.0785672911050028   F   F   F
  0.8962027356029978  0.5000000993410012  0.0785672911050028   F   F   F
  0.6462027356029978  0.5000000993410012  0.0785672911050028   F   F   F
  0.6476268854536045  0.9988838607694989  0.1573776405805420   T   T   T
  0.3971700735321406  0.6672328205320650  0.1572616984100806   T   T   T
  0.6468848040191982  0.6685756687327815  0.1575602305938576   T   T   T
  0.8970511690315245  0.6670845068999927  0.1568536444173911   T   T   T
  0.1476897293543628  0.9997029515629444  0.1563905609648295   T   T   T
  0.8969100341565699  0.9972918419767994  0.1572348084046464   T   T   T
  0.3980292394123354  0.9989435258194445  0.1573312306646768   T   T   T
  0.1471045353145363  0.6667045839960344  0.1570400557097878   T   T   T
  0.3963529208127937  0.3332376236401484  0.1566976928924704   T   T   T
  0.8967697137794147  0.3337333756534200  0.1569245270087477   T   T   T
  0.6467930706094628  0.3335414767790643  0.1568232805753360   T   T   T
  0.1482499985605617  0.3330318680051739  0.1565870892735670   T   T   T
  0.6491163245548608  0.1669156387170438  0.2348788798499590   T   T   T
  0.6483684426352668  0.8340361753138482  0.2385023034803803   T   T   T
  0.3988028641244828  0.8317910953486017  0.2360699539748274   T   T   T
  0.8965021541655147  0.5026836944073236  0.2350829155520262   T   T   T
  0.1485976995901869  0.8334135977105961  0.2345340343651264   T   T   T
  0.6482715321240382  0.5021281139828565  0.2342342132064435   T   T   T
  0.3978319287479416  0.1655608008140206  0.2344042169454105   T   T   T
  0.8984790300682669  0.1640443576545196  0.2340432809719162   T   T   T
  0.3991471856158620  0.5009359563905781  0.2345238622567209   T   T   T
  0.1447613575087192  0.5008661847123973  0.2349576312813571   T   T   T
  0.1484761026517853  0.1649032408658220  0.2350220167101879   T   T   T
  0.8977563306559114  0.8282783922135365  0.2371202094693287   T   T   T
  0.6489123210431660  0.3428611907568707  0.3111248877102938   T   T   T
  0.9005362111067423  0.9986273221219754  0.3116906486560150   T   T   T
  0.1466596111518621  0.6763258274292204  0.3145718077520760   T   T   T
  0.3927465073506472  0.3304447937207905  0.3136256409165133   T   T   T
  0.6521543859706260  0.0057032192386142  0.3161771071860947   T   T   T
  0.6519622954258474  0.6605778459078766  0.3166712423989379   T   T   T
  0.4009470413777252  0.9982842102550027  0.3124743214206633   T   T   T
  0.9008425098744192  0.6590953649606958  0.3190045075764505   T   T   T
  0.4033034555452538  0.6688318001748422  0.3177561995450743   T   T   T
  0.9013430090734520  0.3308435379253925  0.3079742452852544   T   T   T
  0.1432613834974789  0.3265963370054248  0.3142628013544940   T   T   T
  0.1506005698929575  0.9983262071243104  0.3125880426486338   T   T   T
  0.6478110853248653  0.8418223728279808  0.3922434432508239   T   T   T
  0.1475984235490501  0.8374181243041631  0.3935739716309592   T   T   T
  0.4062606085762834  0.8442291399450423  0.3936865964327642   T   T   T
  0.4088108698223099  0.1536992011147097  0.3954627143478472   T   T   T
  0.1434621775753623  0.1619826037326035  0.3922506869621137   T   T   T
  0.9079861981026232  0.8377066190728377  0.3912088595134199   T   T   T
  0.9061519280388269  0.1609892819867898  0.3881092028039003   T   T   T
  0.6706801291229096  0.2091019587476070  0.4014654236662969   T   T   T
  0.8340081809439470  0.4299929225387873  0.3957230615422395   T   T   T
  0.6510495587851591  0.5585365763626926  0.4317963395336359   T   T   T
  0.0960605013963307  0.5030186421897858  0.3916615178242180   T   T   T
  0.5274717940530339  0.2558856852830150  0.3564415538558952   T   T   T
  0.6753563931063196  0.3879206700838745  0.4311434844462450   T   T   T
  0.3826907774422833  0.5245199975661826  0.4111455519141650   T   T   T
  0.3637928901296673  0.6021828776278999  0.4501883685123088   T   T   T
  0.5452404976698534  0.3560513547838704  0.4753755105429288   T   T   T
  0.4702904394662111  0.3359671979701336  0.5071179172814539   T   T   T
