CeO2-110-l3-p23:                        
   1.00000000000000     
    10.9800000000000004    0.0000000000000000    0.0000000000000000
     0.0000000000000000   11.6460486861424357    0.0000000000000000
     0.0000000000000000    0.0000000000000000   24.7050405717853714
    36    72     1     1     1     2
Selective dynamics
Direct
  0.7712027356029978  0.1666667660079995  0.0000000000000000   F   F   F
  0.7712027356029978  0.5000000993410012  0.0000000000000000   F   F   F
  0.2712027356029978  0.1666667660079995  0.0000000000000000   F   F   F
  0.7712027356029978  0.8333334326740029  0.0000000000000000   F   F   F
  0.2712027356029978  0.5000000993410012  0.0000000000000000   F   F   F
  0.2712027356029978  0.8333334326740029  0.0000000000000000   F   F   F
  0.5212027356029978  0.0000000993410012  0.0785672911050028   F   F   F
  0.5212027356029978  0.6666667660079995  0.0785672911050028   F   F   F
  0.0212027356029978  0.0000000993410012  0.0785672911050028   F   F   F
  0.5212027356029978  0.3333334326740029  0.0785672911050028   F   F   F
  0.0212027356029978  0.3333334326740029  0.0785672911050028   F   F   F
  0.0212027356029978  0.6666667660079995  0.0785672911050028   F   F   F
  0.7711519121827077  0.1676600313032378  0.1575493577168803   T   T   T
  0.7709602947886383  0.8332944618113545  0.1574333503495491   T   T   T
  0.2706982331611913  0.1668916670920361  0.1578264150899252   T   T   T
  0.7712571559010196  0.4993873167388815  0.1575633923027196   T   T   T
  0.2705505203511871  0.5001861707307077  0.1579183858322155   T   T   T
  0.2710869893002254  0.8333070667380010  0.1564844979012537   T   T   T
  0.0195975426829951  0.6664813548906178  0.2337765998623020   T   T   T
  0.5215974066331115  0.6658932165351520  0.2338028773869450   T   T   T
  0.0210246465723298  0.3335563558439982  0.2352872503391608   T   T   T
  0.0196961959661454  0.0006736241143385  0.2331081832620830   T   T   T
  0.5217753545426075  0.0010692523563132  0.2337429282566741   T   T   T
  0.5202401966579371  0.3336459291694778  0.2341215423614539   T   T   T
  0.7720555152258254  0.4996555955727383  0.3167608448565622   T   T   T
  0.7719600760349394  0.1678104273608998  0.3167323792783178   T   T   T
  0.2677578969394990  0.5013009889277693  0.3174943753152333   T   T   T
  0.2698166539370409  0.8335546503285817  0.3113423448712105   T   T   T
  0.2684623278858981  0.1662479077794472  0.3171869737232216   T   T   T
  0.7706742798182095  0.8335283925785779  0.3162178502840710   T   T   T
  0.0169810921448499  0.0051972757568478  0.3845055059697995   T   T   T
  0.5233343704402847  0.0070213207781439  0.3856728668944649   T   T   T
  0.0155626040556296  0.6616656029807559  0.3865945765893867   T   T   T
  0.5234643972703065  0.6608787140470511  0.3856672875983315   T   T   T
  0.0198189620576387  0.3337529875488953  0.3894968396912936   T   T   T
  0.5201087446523236  0.3340459656676765  0.3848318413447847   T   T   T
  0.6462027356029978  0.3333334326740029  0.0000000000000000   F   F   F
  0.1462027356029978  0.0000000993410012  0.0000000000000000   F   F   F
  0.6462027356029978  0.6666667660079995  0.0000000000000000   F   F   F
  0.8962027356029978  0.0000000993410012  0.0000000000000000   F   F   F
  0.8962027356029978  0.3333334326740029  0.0000000000000000   F   F   F
  0.1462027356029978  0.3333334326740029  0.0000000000000000   F   F   F
  0.3962027356029978  0.6666667660079995  0.0000000000000000   F   F   F
  0.3962027356029978  0.0000000993410012  0.0000000000000000   F   F   F
  0.6462027356029978  0.0000000993410012  0.0000000000000000   F   F   F
  0.3962027356029978  0.3333334326740029  0.0000000000000000   F   F   F
  0.8962027356029978  0.6666667660079995  0.0000000000000000   F   F   F
  0.1462027356029978  0.6666667660079995  0.0000000000000000   F   F   F
  0.3962027356029978  0.8333334326740029  0.0785672911050028   F   F   F
  0.6462027356029978  0.8333334326740029  0.0785672911050028   F   F   F
  0.3962027356029978  0.1666667660079995  0.0785672911050028   F   F   F
  0.1462027356029978  0.1666667660079995  0.0785672911050028   F   F   F
  0.8962027356029978  0.1666667660079995  0.0785672911050028   F   F   F
  0.8962027356029978  0.8333334326740029  0.0785672911050028   F   F   F
  0.6462027356029978  0.1666667660079995  0.0785672911050028   F   F   F
  0.1462027356029978  0.8333334326740029  0.0785672911050028   F   F   F
  0.3962027356029978  0.5000000993410012  0.0785672911050028   F   F   F
  0.1462027356029978  0.5000000993410012  0.0785672911050028   F   F   F
  0.8962027356029978  0.5000000993410012  0.0785672911050028   F   F   F
  0.6462027356029978  0.5000000993410012  0.0785672911050028   F   F   F
  0.6461449308330225  0.9998073491548299  0.1571079007068427   T   T   T
  0.3959608564101695  0.6665642535704102  0.1568652050914185   T   T   T
  0.6460402217511023  0.6670564949541358  0.1571178433254969   T   T   T
  0.8953719655758705  0.6664988235628817  0.1567029496680756   T   T   T
  0.1463520489392668  0.0004828371575317  0.1564443533152294   T   T   T
  0.8953467698021744  0.0003911271837580  0.1565790555474966   T   T   T
  0.3960517513245103  0.0002841273622855  0.1568743224283060   T   T   T
  0.1462223908089005  0.6662639703774500  0.1566230553179468   T   T   T
  0.3955040835961243  0.3335294958547340  0.1574861947971450   T   T   T
  0.8958924359730114  0.3334829022295794  0.1568355413929479   T   T   T
  0.6457489623397900  0.3334381972506054  0.1567992415157508   T   T   T
  0.1463810760100314  0.3335859512675456  0.1575378690072630   T   T   T
  0.6452214584736361  0.1674520842607085  0.2349467416858391   T   T   T
  0.6452311839673647  0.8335390868497616  0.2359140785768273   T   T   T
  0.3955637743010584  0.8335100787052402  0.2346863149360842   T   T   T
  0.8961477281324424  0.4993295759012401  0.2350732122686951   T   T   T
  0.1469619781608822  0.8334045788871167  0.2338118010622789   T   T   T
  0.6451873235774561  0.4996074528661059  0.2349255717883746   T   T   T
  0.3957197661535720  0.1649891179656404  0.2361810522937198   T   T   T
  0.8961601067290048  0.1679190394308308  0.2349734510556155   T   T   T
  0.3956227847024041  0.5022246041331532  0.2362465050693665   T   T   T
  0.1453396322882787  0.5014973316423988  0.2360832063195494   T   T   T
  0.1455024870324597  0.1657393162144825  0.2357033810363355   T   T   T
  0.8960004749624293  0.8334601869172138  0.2345738630845260   T   T   T
  0.6441356652435585  0.3335496377097691  0.3131446482982626   T   T   T
  0.8943917650424904  0.0009093502514050  0.3108317669413003   T   T   T
  0.1436617527624361  0.6732064644653897  0.3127345495983411   T   T   T
  0.3955310599990296  0.3335120629278315  0.3132563069271716   T   T   T
  0.6451412956257997  0.0034603638839060  0.3131931699418661   T   T   T
  0.6449240711835370  0.6639647032754856  0.3131467186537791   T   T   T
  0.3967617411990832  0.9947340270809021  0.3148742471603315   T   T   T
  0.8936513557279991  0.6664789085405087  0.3114353420186211   T   T   T
  0.3965180545339589  0.6725568543617446  0.3149049067322900   T   T   T
  0.8937266957409025  0.3335548102420729  0.3135466989808199   T   T   T
  0.1481040442150431  0.3329850463790506  0.3135120275030431   T   T   T
  0.1441508680482283  0.9948934011450513  0.3116849727065966   T   T   T
  0.6328995513271976  0.8339270451688956  0.3877190041775090   T   T   T
  0.1542996648250077  0.8373838100556374  0.3946437461560006   T   T   T
  0.3963639079658018  0.8339590590803324  0.4019070331349813   T   T   T
  0.4027964331819727  0.1663492524700995  0.3906612130518136   T   T   T
  0.1416910929016315  0.1551295111249083  0.3902020779527040   T   T   T
  0.9072740416749925  0.8347280624830853  0.3875784431963874   T   T   T
  0.8963102826722701  0.1561324266492255  0.3913433485715607   T   T   T
  0.6384767778137518  0.1681993270379628  0.3917568413510281   T   T   T
  0.4028694137982670  0.5004265557801076  0.3905274007907573   T   T   T
  0.8958043169856356  0.5103862984230917  0.3915834565636784   T   T   T
  0.6384059824117524  0.4990501863174451  0.3915515415197314   T   T   T
  0.1408622512027326  0.5104145702146637  0.3896757674046022   T   T   T
  0.2624974311196747  0.7859919831487127  0.4532374854183959   T   T   T
  0.4196153905463447  0.7084911709973566  0.5458921235529114   T   T   T
  0.3586600098693071  0.7386034218063704  0.5100855153173282   T   T   T
  0.0992158531957827  0.7360131283920768  0.4852670713405752   T   T   T
  0.0866696922916690  0.6918403252171657  0.5342558519826406   T   T   T
